LAMMPS (4 May 2022)
OMP_NUM_THREADS environment is not set. Defaulting to 1 thread. (src/comm.cpp:98)
  using 1 OpenMP thread(s) per MPI task
variable seed equal 1
units real
boundary p p p

atom_style molecular

region main block -5000 5000 -5000 5000 -5000 5000

create_box 168 main bond/types 167 angle/types 166 extra/bond/per/atom 2 extra/angle/per/atom 3 extra/special/per/atom 6
Created orthogonal box = (-5000 -5000 -5000) to (5000 5000 5000)
  1 by 1 by 1 MPI processor grid

molecule proto168 prototypeIdealized168.txt
Read molecule template proto168:
  1 molecules
  0 fragments
  168 atoms with max type 168
  167 bonds with max type 167
  166 angles with max type 166
  0 dihedrals with max type 0
  0 impropers with max type 0
bond_style harmonic
angle_style harmonic

create_atoms 0 single 0 0 0 mol proto168 ${seed} rotate 0 0 0 1
create_atoms 0 single 0 0 0 mol proto168 1 rotate 0 0 0 1
Created 168 atoms
  using lattice units in orthogonal box = (-5000 -5000 -5000) to (5000 5000 5000)
  create_atoms CPU = 0.003 seconds

read_data IdealizedCoeffs168.data add merge
Reading data file ...
  orthogonal box = (-5000 -5000 -5000) to (5000 5000 5000)
  1 by 1 by 1 MPI processor grid
Finding 1-2 1-3 1-4 neighbors ...
  special bond factors lj:    0        0        0       
  special bond factors coul:  0        0        0       
     2 = max # of 1-2 neighbors
     2 = max # of 1-3 neighbors
     4 = max # of 1-4 neighbors
    13 = max # of special neighbors
  special bonds CPU = 0.002 seconds
  read_data CPU = 0.017 seconds

group internals type 2:167
166 atoms in group internals
group endpoints subtract all internals
2 atoms in group endpoints

fix stationary endpoints setforce 0 0 0

minimize 0.0 1.0e-9 100000 100000
WARNING: Using 'neigh_modify every 1 delay 0 check yes' setting during minimization (src/min.cpp:187)
WARNING: No pairwise cutoff or binsize set. Atom sorting therefore disabled. (src/atom.cpp:2127)
Per MPI rank memory allocation (min/avg/max) = 7.994 | 7.994 | 7.994 Mbytes
   Step          Temp          E_pair         E_mol          TotEng         Press     
         0   0              0              10189619       10189619      -0.47379283   
     41666   0              0              22.04914       22.04914       8.8726855e-09
Loop time of 2.42491 on 1 procs for 41666 steps with 168 atoms

99.2% CPU use with 1 MPI tasks x 1 OpenMP threads

Minimization stats:
  Stopping criterion = linesearch alpha is zero
  Energy initial, next-to-last, final = 
      10189619.1224385   22.0491395765966   22.0491395765966
  Force two-norm initial, final = 20649.063 0.0032986547
  Force max component initial, final = 4575.8088 0.0004721582
  Final line search alpha, max atom move = 0.0009765625 4.6109199e-07
  Iterations, force evaluations = 41666 77596

MPI task timing breakdown:
Section |  min time  |  avg time  |  max time  |%varavg| %total
---------------------------------------------------------------
Pair    | 0          | 0          | 0          |   0.0 |  0.00
Bond    | 2.0064     | 2.0064     | 2.0064     |   0.0 | 82.74
Neigh   | 0.019866   | 0.019866   | 0.019866   |   0.0 |  0.82
Comm    | 0.022805   | 0.022805   | 0.022805   |   0.0 |  0.94
Output  | 0          | 0          | 0          |   0.0 |  0.00
Modify  | 0.022893   | 0.022893   | 0.022893   |   0.0 |  0.94
Other   |            | 0.3529     |            |       | 14.55

Nlocal:            168 ave         168 max         168 min
Histogram: 1 0 0 0 0 0 0 0 0 0
Nghost:              0 ave           0 max           0 min
Histogram: 1 0 0 0 0 0 0 0 0 0
Neighs:              0 ave           0 max           0 min
Histogram: 1 0 0 0 0 0 0 0 0 0

Total # of neighbors = -1
Ave neighs/atom = -0.005952381
Ave special neighs/atom = 5.9285714
Neighbor list builds = 1557
Dangerous builds = 0

write_dump all custom proto168MinCoords.dump id x y z
Total wall time: 0:00:02
