ITEM: TIMESTEP
19121
ITEM: NUMBER OF ATOMS
84
ITEM: BOX BOUNDS pp pp pp
-5.0000000000000000e+03 5.0000000000000000e+03
-5.0000000000000000e+03 5.0000000000000000e+03
-5.0000000000000000e+03 5.0000000000000000e+03
ITEM: ATOMS id x y z
1 5.97446    -0.001262577  -0.142052686
2 10.2072    -0.00061199   -0.117050218
3 14.4141    3.95615E-05   -0.092084373
4 18.5692    0.000693023   -0.067192515
5 22.6462    0.001349339   -0.042413488
6 26.6185    0.002009406   -0.017786689
7 30.4592    0.002674092   0.00664593
8 34.1405    0.003344222   0.030840089
9 37.6342    0.004020552   0.054748251
10 40.9111   0.004703762   0.078320179
11 43.9415   0.005394436   0.101500714
12 46.6945   0.00609307    0.124230668
13 49.1386   0.006800026   0.146446042
14 51.2414   0.007515507   0.168077287
15 52.9697   0.008239633   0.189049307
16 54.2895   0.008972166   0.209281455
17 55.1665   0.009712806   0.228686428
18 55.5661   0.010460959   0.247170261
19 55.4534   0.011215789   0.264633441
20 54.7944   0.011976163   0.280970538
21 53.5555   0.012740531   0.29606946
22 51.7049   0.013507166   0.309814418
23 49.2125   0.01427374    0.322084812
24 46.0513   0.015037751   0.332757085
25 42.198    0.015796158   0.341706937
26 37.6339   0.016545503   0.34881118
27 32.3459   0.01728203    0.353948846
28 26.3278   0.018001327   0.357006364
29 19.5813   0.018698863   0.357877193
30 12.1167   0.019369631   0.356469588
31 3.95455   0.020008264   0.352705863
32 -4.87395  0.020609457   0.346529418
33 -14.3262  0.021167486   0.337907328
34 -24.3476  0.021676807   0.326833306
35 -34.8717  0.022131935   0.313331396
36 -45.8204  0.022527682   0.297458938
37 -57.1046  0.022859161   0.279308047
38 -68.6255  0.023122198   0.259005241
39 -80.2759  0.023313156   0.236712921
40 -91.9424  0.023429293   0.212626043
41 -103.508  0.0234687     0.186971378
42 -114.853  0.023430604   0.160000112
43 -125.862  0.023315004   0.131986368
44 -136.419  0.023123211   0.103218695
45 -146.419  0.022857313   0.073994152
46 -155.764  0.022520588   0.044612755
47 -164.365  0.02211703    0.015368457
48 -172.149  0.02165129    -0.013455002
49 -179.054  0.021128853   -0.041591121
50 -185.033  0.020555383   -0.068795446
51 -190.052  0.01993708    -0.094848532
52 -194.093  0.019280084   -0.119559121
53 -197.148  0.018590715   -0.142766292
54 -199.224  0.017875115   -0.164339457
55 -200.336  0.017139005   -0.184177255
56 -200.51   0.01638811    -0.202207916
57 -199.779  0.015627378   -0.21838668
58 -198.181  0.014861638   -0.23269357
59 -195.762  0.014095064   -0.245130066
60 -192.566  0.013331351   -0.255717623
61 -188.645  0.012573659   -0.264494346
62 -184.048  0.011824732   -0.271512024
63 -178.825  0.011086774   -0.276833548
64 -173.026  0.010361634   -0.280530684
65 -166.699  0.009650684   -0.28268186
66 -159.891  0.008954876   -0.28337068
67 -152.646  0.008274928   -0.28268334
68 -145.006  0.007611195   -0.280708254
69 -137.01   0.006963678   -0.277534206
70 -128.696  0.006332259   -0.273249982
71 -120.097  0.005716621   -0.267942515
72 -111.246  0.005116131   -0.261698002
73 -102.171  0.004530111   -0.254600787
74 -92.9003  0.00395772    -0.246732257
75 -83.4578  0.003397992   -0.238171947
76 -73.8666  0.002849889   -0.228997174
77 -64.1478  0.002312285   -0.219282665
78 -54.3208  0.001783976   -0.209100927
79 -44.4037  0.001263733   -0.198522988
80 -34.4134  0.000750263   -0.187617656
81 -24.3656  0.000242248   -0.176452259
82 -14.2755  -0.000261654  -0.165093016
83 -4.15743  -0.000762759  -0.153605036
84 5.97446   -0.001262577  -0.142052686
