ITEM: TIMESTEP
41666
ITEM: NUMBER OF ATOMS
168
ITEM: BOX BOUNDS pp pp pp
-5.0000000000000000e+03 5.0000000000000000e+03
-5.0000000000000000e+03 5.0000000000000000e+03
-5.0000000000000000e+03 5.0000000000000000e+03
ITEM: ATOMS id x y z
1 7.20824 -6.13971 -15.1784
2 0.744483 -4.33016 -15.4419
3 -5.71787 -2.5156 -15.7055
4 -12.178 -0.693255 -15.9692
5 -18.6348 1.14075 -16.2331
6 -25.0872 2.99031 -16.4973
7 -31.534 4.85925 -16.7618
8 -37.974 6.75145 -17.0266
9 -44.4058 8.67078 -17.2917
10 -50.8283 10.6211 -17.5572
11 -57.2401 12.6064 -17.8231
12 -63.6397 14.6304 -18.0894
13 -70.0256 16.6971 -18.3563
14 -76.3962 18.8103 -18.6237
15 -82.7498 20.9739 -18.8917
16 -89.0847 23.1916 -19.1604
17 -95.3988 25.4673 -19.4297
18 -101.69 27.8047 -19.6997
19 -107.957 30.2076 -19.9704
20 -114.197 32.6796 -20.2419
21 -120.407 35.2245 -20.5142
22 -126.585 37.8458 -20.7873
23 -132.729 40.5472 -21.0612
24 -138.835 43.3321 -21.336
25 -144.901 46.2041 -21.6116
26 -150.922 49.1665 -21.888
27 -156.897 52.2228 -22.1653
28 -162.821 55.3761 -22.4434
29 -168.69 58.6298 -22.7224
30 -174.501 61.9869 -23.0022
31 -180.248 65.4503 -23.2829
32 -185.929 69.0228 -23.5645
33 -191.537 72.7072 -23.8469
34 -197.068 76.5059 -24.1302
35 -202.518 80.4211 -24.4142
36 -207.88 84.4551 -24.6989
37 -213.149 88.6096 -24.9842
38 -218.319 92.8862 -25.27
39 -223.384 97.2864 -25.5561
40 -228.338 101.811 -25.8425
41 -233.175 106.461 -26.1289
42 -237.887 111.237 -26.4152
43 -242.468 116.139 -26.7011
44 -246.91 121.167 -26.9864
45 -251.207 126.319 -27.2709
46 -255.35 131.596 -27.5542
47 -259.333 136.995 -27.8361
48 -263.146 142.514 -28.1163
49 -266.783 148.151 -28.3944
50 -270.235 153.904 -28.67
51 -273.495 159.767 -28.9426
52 -276.553 165.738 -29.2119
53 -279.402 171.812 -29.4773
54 -282.035 177.982 -29.7384
55 -284.442 184.244 -29.9947
56 -286.617 190.591 -30.2457
57 -288.551 197.015 -30.4909
58 -290.237 203.508 -30.7298
59 -291.668 210.063 -30.9619
60 -292.837 216.669 -31.1866
61 -293.738 223.318 -31.4036
62 -294.364 229.998 -31.6122
63 -294.711 236.698 -31.8119
64 -294.772 243.407 -32.0023
65 -294.544 250.113 -32.1829
66 -294.024 256.802 -32.3532
67 -293.207 263.462 -32.5126
68 -292.092 270.079 -32.6609
69 -290.678 276.639 -32.7976
70 -288.964 283.126 -32.9222
71 -286.951 289.527 -33.0345
72 -284.64 295.827 -33.1341
73 -282.033 302.01 -33.2205
74 -279.133 308.062 -33.2936
75 -275.946 313.968 -33.353
76 -272.476 319.711 -33.3986
77 -268.73 325.279 -33.4301
78 -264.715 330.656 -33.4475
79 -260.44 335.828 -33.4506
80 -255.913 340.782 -33.4394
81 -251.146 345.505 -33.4139
82 -246.149 349.983 -33.3741
83 -240.934 354.206 -33.3201
84 -235.515 358.163 -33.252
85 -229.904 361.843 -33.1699
86 -224.116 365.236 -33.074
87 -218.165 368.336 -32.9646
88 -212.067 371.134 -32.8419
89 -205.838 373.624 -32.7063
90 -199.492 375.801 -32.5582
91 -193.046 377.66 -32.398
92 -186.516 379.199 -32.2262
93 -179.919 380.415 -32.0432
94 -173.271 381.308 -31.8497
95 -166.587 381.877 -31.6462
96 -159.884 382.123 -31.4333
97 -153.177 382.049 -31.2114
98 -146.482 381.657 -30.9814
99 -139.812 380.952 -30.7437
100 -133.182 379.938 -30.4989
101 -126.606 378.62 -30.2477
102 -120.096 377.005 -29.9906
103 -113.666 375.099 -29.7282
104 -107.327 372.91 -29.4612
105 -101.089 370.446 -29.19
106 -94.9636 367.715 -28.9154
107 -88.9596 364.726 -28.6377
108 -83.0859 361.489 -28.3577
109 -77.3504 358.013 -28.0758
110 -71.7603 354.306 -27.7925
111 -66.3222 350.381 -27.5083
112 -61.0416 346.245 -27.2236
113 -55.9235 341.91 -26.9388
114 -50.9723 337.385 -26.6542
115 -46.1915 332.68 -26.3703
116 -41.5842 327.805 -26.0871
117 -37.1525 322.769 -25.8051
118 -32.8983 317.582 -25.5245
119 -28.8226 312.254 -25.2456
120 -24.9261 306.793 -24.9686
121 -21.2089 301.208 -24.6936
122 -17.6705 295.507 -24.421
123 -14.3101 289.7 -24.1508
124 -11.1264 283.794 -23.8834
125 -8.11777 277.797 -23.6188
126 -5.2821 271.715 -23.3572
127 -2.61703 265.557 -23.0986
128 -0.119939 259.328 -22.8432
129 2.21209 253.036 -22.591
130 4.3822 246.685 -22.342
131 6.39368 240.283 -22.0963
132 8.25011 233.833 -21.8539
133 9.95516 227.341 -21.6149
134 11.5126 220.813 -21.3794
135 12.9265 214.251 -21.1473
136 14.2008 207.661 -20.9189
137 15.3397 201.046 -20.6941
138 16.3474 194.409 -20.4729
139 17.2282 187.754 -20.2554
140 17.9866 181.084 -20.0416
141 18.6268 174.402 -19.8313
142 19.1533 167.709 -19.6247
143 19.5705 161.008 -19.4215
144 19.8828 154.302 -19.2218
145 20.0947 147.591 -19.0254
146 20.2106 140.878 -18.8324
147 20.235 134.164 -18.6426
148 20.1724 127.45 -18.456
149 20.027 120.737 -18.2724
150 19.8033 114.026 -18.0919
151 19.5056 107.318 -17.9141
152 19.1382 100.613 -17.739
153 18.7054 93.9122 -17.5665
154 18.2116 87.2154 -17.3964
155 17.6609 80.5229 -17.2285
156 17.0577 73.8349 -17.0628
157 16.406 67.1514 -16.8989
158 15.71 60.4723 -16.7369
159 14.9739 53.7975 -16.5765
160 14.2016 47.1266 -16.4176
161 13.3974 40.4595 -16.2599
162 12.5652 33.7958 -16.1034
163 11.709 27.1351 -15.9479
164 10.833 20.477 -15.793
165 9.94099 13.821 -15.6388
166 9.03708 7.16648 -15.4851
167 8.12522 0.513046 -15.3316
168 7.20824 -6.13971 -15.1784
