PWD = /grand/ModelingCoronaVirus/tleong4/SpectrinTetramerStretch/Elastic_WLC
EXE directory = ./lmp_polaris_gnu
COMMAND= mpiexec  -n 1 --ppn 1 --depth=1 --cpu-bind depth   -env OMP_NUM_THREADS=1 -env OMP_PROC_BIND=spread -env OMP_PLACES=cores  ./lmp_polaris_gnu -in WLC_11_Visualization.lammps
LAMMPS (29 Aug 2024 - Update 2)
  using 1 OpenMP thread(s) per MPI task
Created orthogonal box = (-500 -500 -500) to (500 500 500)
  1 by 1 by 1 MPI processor grid
Read molecule template WLC_11:
# Relaxed Production Model for Worm-Like Chain
  1 molecules
  0 fragments
  11 atoms with max type 11
  10 bonds with max type 10
  9 angles with max type 9
  0 dihedrals with max type 0
  0 impropers with max type 0
Created 11 atoms
  using lattice units in orthogonal box = (-500 -500 -500) to (500 500 500)
  create_atoms CPU = 0.033 seconds
Reading data file ...
  orthogonal box = (-500 -500 -500) to (500 500 500)
  1 by 1 by 1 MPI processor grid
Finding 1-2 1-3 1-4 neighbors ...
  special bond factors lj:    0        0        0       
  special bond factors coul:  0        0        0       
     3 = max # of 1-2 neighbors
     6 = max # of 1-3 neighbors
    18 = max # of 1-4 neighbors
    13 = max # of special neighbors
  special bonds CPU = 0.000 seconds
  read_data CPU = 0.015 seconds
9 atoms in group internals
1 atoms in group endpointAlpha
1 atoms in group endpointOmega
2 atoms in group endpoints
Displacing atoms ...
Displacing atoms ...
Restraining force constant: 100.000000
equiLength: 10.000000

Neighbor list info ...
  update: every = 1 steps, delay = 0 steps, check = yes
  max neighbors/atom: 2000, page size: 100000
  master list distance cutoff = 0
  ghost atom cutoff = 100
  binsize = 1000, bins = 1 1 1
  1 neighbor lists, perpetual/occasional/extra = 1 0 0
  (1) fix arclengthrestraint, perpetual
      attributes: half, newton on
      pair build: half/bin/newton
      stencil: half/bin/3d
      bin: standard
Setting up cg style minimization ...
  Unit style    : real
  Current step  : 0
WARNING: No pairwise cutoff or binsize set. Atom sorting therefore disabled. (../atom.cpp:2442)
Per MPI rank memory allocation (min/avg/max) = 8.621 | 8.621 | 8.621 Mbytes
   Step         PotEng         KinEng         Fnorm          E_pair         E_pair         E_bond        E_angle        E_dihed         TotEng    
         0   8.7277681      0              5865.3486      0              0              0              3.0297434      0              8.7277681    
        32   8.4350212      0              96.325336      0              0              0              2.8308693      0              8.4350212    
Loop time of 0.00231197 on 1 procs for 32 steps with 11 atoms

100.0% CPU use with 1 MPI tasks x 1 OpenMP threads

Minimization stats:
  Stopping criterion = linesearch alpha is zero
  Energy initial, next-to-last, final = 
      8.72776807360132   8.43502123048017   8.43502123048017
  Force two-norm initial, final = 5865.3486 96.325336
  Force max component initial, final = 3932.6184 61.642701
  Final line search alpha, max atom move = 1.1803437e-12 7.2759576e-11
  Iterations, force evaluations = 32 745

MPI task timing breakdown:
Section |  min time  |  avg time  |  max time  |%varavg| %total
---------------------------------------------------------------
Pair    | 0          | 0          | 0          |   0.0 |  0.00
Bond    | 0.00046862 | 0.00046862 | 0.00046862 |   0.0 | 20.27
Neigh   | 0.00019409 | 0.00019409 | 0.00019409 |   0.0 |  8.39
Comm    | 0.00011756 | 0.00011756 | 0.00011756 |   0.0 |  5.08
Output  | 0          | 0          | 0          |   0.0 |  0.00
Modify  | 0.00041137 | 0.00041137 | 0.00041137 |   0.0 | 17.79
Other   |            | 0.00112    |            |       | 48.46

Nlocal:             11 ave          11 max          11 min
Histogram: 1 0 0 0 0 0 0 0 0 0
Nghost:              0 ave           0 max           0 min
Histogram: 1 0 0 0 0 0 0 0 0 0
Neighs:              0 ave           0 max           0 min
Histogram: 1 0 0 0 0 0 0 0 0 0

Total # of neighbors = 0
Ave neighs/atom = 0
Ave special neighs/atom = 4.9090909
Neighbor list builds = 160
Dangerous builds = 97
Setting up Verlet run ...
  Unit style    : real
  Current step  : 0
  Time step     : 1e-06
WARNING: Communication cutoff 100 is shorter than a bond length based estimate of 101.5. This may lead to errors. (../comm.cpp:730)
Per MPI rank memory allocation (min/avg/max) = 7.496 | 7.496 | 7.496 Mbytes
   Step     c_integrate_temp      Temp          KinEng    
         0   310            248            7.3924089    
Loop time of 1.002e-06 on 1 procs for 0 steps with 11 atoms

99.8% CPU use with 1 MPI tasks x 1 OpenMP threads

MPI task timing breakdown:
Section |  min time  |  avg time  |  max time  |%varavg| %total
---------------------------------------------------------------
Pair    | 0          | 0          | 0          |   0.0 |  0.00
Bond    | 0          | 0          | 0          |   0.0 |  0.00
Neigh   | 0          | 0          | 0          |   0.0 |  0.00
Comm    | 0          | 0          | 0          |   0.0 |  0.00
Output  | 0          | 0          | 0          |   0.0 |  0.00
Modify  | 0          | 0          | 0          |   0.0 |  0.00
Other   |            | 1.002e-06  |            |       |100.00

Nlocal:             11 ave          11 max          11 min
Histogram: 1 0 0 0 0 0 0 0 0 0
Nghost:              0 ave           0 max           0 min
Histogram: 1 0 0 0 0 0 0 0 0 0
Neighs:              0 ave           0 max           0 min
Histogram: 1 0 0 0 0 0 0 0 0 0

Total # of neighbors = 0
Ave neighs/atom = 0
Ave special neighs/atom = 4.9090909
Neighbor list builds = 0
Dangerous builds = 0
Setting up Verlet run ...
  Unit style    : real
  Current step  : 0
  Time step     : 1e-06
WARNING: Communication cutoff 100 is shorter than a bond length based estimate of 101.5. This may lead to errors. (../comm.cpp:730)
Per MPI rank memory allocation (min/avg/max) = 7.496 | 7.496 | 7.496 Mbytes
   Step     c_integrate_temp      Temp          KinEng    
         0   310            248            7.3924089    
  10000000   241.10898      192.88718      5.7496006    
  20000000   239.52876      191.62301      5.711918     
  30000000   466.11103      372.88882      11.115107    
  40000000   397.66139      318.12911      9.4828245    
  50000000   304.3593       243.48744      7.2578981    
  60000000   207.51984      166.01587      4.9486177    
  70000000   374.0246       299.21968      8.9191703    
  80000000   318.71303      254.97043      7.6001841    
  90000000   214.06903      171.25523      5.104793     
 100000000   339.9775       271.982        8.1072668    
 110000000   302.12502      241.70001      7.2046183    
 120000000   276.53764      221.23011      6.5944494    
 130000000   183.01512      146.41209      4.3642664    
 140000000   275.78447      220.62758      6.5764891    
 150000000   320.15499      256.12399      7.6345697    
 160000000   221.70623      177.36498      5.2869132    
 170000000   114.38181      91.505447      2.7276036    
 180000000   211.55834      169.24667      5.0449218    
 190000000   456.64683      365.31746      10.88942     
 200000000   292.88296      234.30637      6.9842279    
 210000000   252.7474       202.19792      6.0271359    
 220000000   195.61567      156.49253      4.6647452    
 230000000   297.49377      237.99502      7.0941794    
 240000000   297.27854      237.82284      7.089047     
 250000000   304.32122      243.45698      7.2569901    
 260000000   267.51717      214.01374      6.3793429    
 270000000   407.21798      325.77438      9.7107156    
 280000000   300.93558      240.74847      7.1762545    
 290000000   261.13387      208.9071       6.2271238    
 300000000   435.06621      348.05297      10.374798    
 310000000   311.50013      249.20011      7.4281819    
 320000000   521.71898      417.37519      12.441161    
 330000000   429.8837       343.90696      10.251213    
 340000000   217.6342       174.10736      5.1898097    
 350000000   354.67938      283.7435       8.4578549    
 360000000   315.96656      252.77325      7.5346905    
 370000000   261.42151      209.13721      6.2339829    
 380000000   604.19233      483.35386      14.407861    
 390000000   327.25137      261.80109      7.8037933    
 400000000   496.28963      397.03171      11.834761    
 410000000   399.02725      319.2218       9.5153954    
 420000000   357.99635      286.39708      8.536953     
 430000000   474.6106       379.68848      11.317792    
 440000000   343.62833      274.90266      8.1943262    
 450000000   204.56685      163.65348      4.8781995    
 460000000   411.12829      328.90263      9.8039627    
 470000000   267.77672      214.22138      6.3855324    
 480000000   287.85409      230.28327      6.8643069    
 490000000   298.53606      238.82885      7.1190344    
 500000000   475.50311      380.40249      11.339076    
 510000000   193.68018      154.94414      4.6185906    
 520000000   229.94307      183.95446      5.4833329    
 530000000   293.96005      235.16804      7.0099125    
 540000000   191.71314      153.37052      4.5716837    
 550000000   211.76116      169.40893      5.0497584    
 560000000   342.04423      273.63538      8.156551     
 570000000   312.27396      249.81917      7.4466349    
 580000000   272.42829      217.94263      6.4964559    
 590000000   294.37374      235.49899      7.0197776    
 600000000   358.6975       286.958        8.5536729    
 610000000   410.61314      328.49051      9.7916783    
 620000000   379.4675       303.574        9.0489643    
 630000000   314.84863      251.8789       7.5080316    
 640000000   311.77596      249.42076      7.4347592    
 650000000   716.72366      573.37893      17.091337    
 660000000   308.15761      246.52609      7.3484745    
 670000000   239.68914      191.75131      5.7157424    
 680000000   318.85975      255.0878       7.6036828    
 690000000   325.95573      260.76459      7.772897     
 700000000   355.03446      284.02757      8.4663223    
 710000000   216.08875      172.871        5.1529561    
 720000000   437.06628      349.65302      10.422492    
 730000000   285.08459      228.06767      6.7982641    
 740000000   607.50463      486.00371      14.486847    
 750000000   298.50008      238.80006      7.1181762    
 760000000   375.83191      300.66553      8.9622682    
 770000000   309.15532      247.32426      7.3722663    
 780000000   324.8156       259.85248      7.7457089    
 790000000   155.26366      124.21093      3.7024918    
 800000000   458.72558      366.98047      10.938991    
 810000000   183.35792      146.68633      4.3724409    
 820000000   249.37813      199.50251      5.9467907    
 830000000   440.14379      352.11503      10.49588     
 840000000   264.5622       211.64976      6.3088774    
 850000000   424.16154      339.32923      10.11476     
 860000000   297.26421      237.81137      7.0887052    
 870000000   188.99756      151.19805      4.5069266    
 880000000   196.63932      157.31146      4.6891558    
 890000000   218.41151      174.72921      5.2083459    
 900000000   308.24391      246.59513      7.3505324    
 910000000   410.2516       328.20128      9.7830568    
 920000000   424.87609      339.90088      10.131799    
 930000000   207.58181      166.06545      4.9500955    
 940000000   228.84944      183.07955      5.4572537    
 950000000   250.61036      200.48829      5.976175     
 960000000   240.4684       192.37472      5.7343251    
 970000000   274.56073      219.64859      6.5473071    
 980000000   324.55026      259.64021      7.7393815    
 990000000   256.72358      205.37887      6.1219539    
1000000000   403.01807      322.41446      9.6105625    
1010000000   304.16014      243.32811      7.2531488    
1020000000   559.1228       447.29824      13.333111    
1030000000   407.87234      326.29787      9.7263197    
1040000000   414.62633      331.70106      9.8873785    
1050000000   512.23191      409.78553      12.214928    
1060000000   334.37518      267.50015      7.9736713    
1070000000   444.0638       355.25104      10.589359    
1080000000   422.48893      337.99114      10.074874    
1090000000   558.40224      446.72179      13.315928    
1100000000   359.78718      287.82974      8.5796579    
1110000000   287.80596      230.24477      6.8631591    
1120000000   337.40988      269.92791      8.0460381    
1130000000   234.52406      187.61925      5.5925734    
1140000000   248.36498      198.69198      5.9226307    
1150000000   498.37418      398.69935      11.88447     
1160000000   343.42934      274.74347      8.189581     
1170000000   295.31941      236.25553      7.0423286    
1180000000   314.76537      251.81229      7.5060462    
1190000000   433.68438      346.94751      10.341846    
1200000000   412.45239      329.96192      9.8355379    
1210000000   343.07928      274.46343      8.1812334    
1220000000   250.4852       200.38816      5.9731904    
1230000000   326.72342      261.37874      7.7912037    
1240000000   285.62383      228.49906      6.8111229    
1250000000   298.50492      238.80394      7.1182917    
1260000000   144.35499      115.48399      3.4423584    
1270000000   255.56583      204.45266      6.0943455    
1280000000   228.85219      183.08175      5.4573192    
1290000000   340.50056      272.40045      8.11974      
1300000000   224.91492      179.93194      5.3634292    
1310000000   331.03878      264.83102      7.8941097    
1320000000   226.06553      180.85242      5.3908671    
1330000000   274.35724      219.48579      6.5424545    
1340000000   288.25699      230.60559      6.8739146    
1350000000   477.00563      381.6045       11.374905    
1360000000   347.28193      277.82555      8.2814519    
1370000000   268.21774      214.57419      6.3960491    
1380000000   209.68121      167.74497      5.0001589    
1390000000   463.99457      371.19566      11.064637    
1400000000   359.12642      287.30114      8.5639012    
1410000000   148.89211      119.11369      3.5505527    
1420000000   522.3062       417.84496      12.455165    
1430000000   181.09271      144.87417      4.3184239    
1440000000   498.05939      398.44751      11.876963    
1450000000   306.44154      245.15323      7.3075521    
1460000000   225.55065      180.44052      5.378589     
1470000000   295.18875      236.151        7.0392129    
1480000000   290.1669       232.13352      6.9194594    
1490000000   462.30022      369.84018      11.024233    
1500000000   261.64827      209.31862      6.2393904    
1510000000   349.32951      279.46361      8.3302793    
1520000000   258.44664      206.75731      6.1630427    
1530000000   246.88508      197.50807      5.8873403    
1540000000   441.11251      352.89001      10.518981    
1550000000   365.355        292.284        8.7124307    
1560000000   325.20462      260.1637       7.7549856    
1570000000   271.20464      216.96371      6.4672762    
1580000000   364.2241       291.37928      8.6854628    
1590000000   442.4491       353.95928      10.550854    
1600000000   227.54151      182.03321      5.4260642    
1610000000   220.59077      176.47262      5.2603136    
1620000000   304.51874      243.61499      7.2617002    
1630000000   291.72862      233.3829       6.9567009    
1640000000   239.21729      191.37383      5.7044903    
1650000000   365.37672      292.30137      8.7129487    
1660000000   195.35706      156.28565      4.6585783    
1670000000   252.77564      202.22051      6.0278094    
1680000000   230.00286      184.00229      5.4847588    
1690000000   390.17924      312.14339      9.3044016    
1700000000   299.0255       239.2204       7.1307058    
1710000000   329.5278       263.62224      7.8580781    
1720000000   340.05514      272.04412      8.1091183    
1730000000   255.83556      204.66845      6.1007776    
1740000000   206.27941      165.02353      4.9190379    
1750000000   369.46802      295.57442      8.8105119    
1760000000   243.832        195.0656       5.8145351    
1770000000   256.72701      205.38161      6.1220356    
1780000000   388.10483      310.48387      9.2549343    
1790000000   286.82291      229.45832      6.8397168    
1800000000   363.45001      290.76001      8.6670036    
1810000000   358.12388      286.49911      8.5399942    
1820000000   232.96543      186.37235      5.5554056    
1830000000   303.84682      243.07746      7.2456772    
1840000000   266.88471      213.50777      6.3642611    
1850000000   281.18137      224.9451       6.7051861    
1860000000   407.29849      325.83879      9.7126354    
1870000000   330.79405      264.63524      7.8882737    
1880000000   388.22079      310.57663      9.2576995    
1890000000   339.4152       271.53216      8.0938579    
1900000000   236.59308      189.27446      5.6419122    
1910000000   305.2535       244.2028       7.2792217    
1920000000   442.50569      354.00455      10.552203    
1930000000   543.31847      434.65477      12.956233    
1940000000   288.88096      231.10477      6.8887941    
1950000000   190.0411       152.03288      4.5318112    
1960000000   191.47927      153.18341      4.5661066    
1970000000   170.54629      136.43703      4.0669287    
1980000000   341.43606      273.14885      8.1420483    
1990000000   383.56271      306.85017      9.1466207    
2000000000   199.77061      159.81649      4.7638259    
Loop time of 3931.65 on 1 procs for 2000000000 steps with 11 atoms

Performance: 0.044 ns/day, 546.063 hours/ns, 508691.832 timesteps/s, 5.596 Matom-step/s
100.0% CPU use with 1 MPI tasks x 1 OpenMP threads

MPI task timing breakdown:
Section |  min time  |  avg time  |  max time  |%varavg| %total
---------------------------------------------------------------
Pair    | 0          | 0          | 0          |   0.0 |  0.00
Bond    | 990.36     | 990.36     | 990.36     |   0.0 | 25.19
Neigh   | 0          | 0          | 0          |   0.0 |  0.00
Comm    | 177.63     | 177.63     | 177.63     |   0.0 |  4.52
Output  | 0.055344   | 0.055344   | 0.055344   |   0.0 |  0.00
Modify  | 2123.3     | 2123.3     | 2123.3     |   0.0 | 54.01
Other   |            | 640.3      |            |       | 16.29

Nlocal:             11 ave          11 max          11 min
Histogram: 1 0 0 0 0 0 0 0 0 0
Nghost:              0 ave           0 max           0 min
Histogram: 1 0 0 0 0 0 0 0 0 0
Neighs:              0 ave           0 max           0 min
Histogram: 1 0 0 0 0 0 0 0 0 0

Total # of neighbors = 0
Ave neighs/atom = 0
Ave special neighs/atom = 4.9090909
Neighbor list builds = 0
Dangerous builds = 0
Total wall time: 1:05:32
