print "The current dispRatio value is: ${dispRatio}"
The current dispRatio value is: 0.90

variable totLength equal 1121.3409 # Sum of all bond equilibrium lengths
variable dispDist equal "v_totLength*v_dispRatio/2"
variable commDist equal "v_dispDist*2"
# Displacement distance is divided by two because I want to displace both the bow and stern atoms of each chain.

variable seed equal 1
units real
boundary p p p

atom_style molecular

lattice sc 24000
Lattice spacing in x,y,z = 24000 24000 24000

region main block -0.125 0.125 -0.125 0.125 -0.125 0.125 units lattice

# region main block -25000 25000 -25000 25000 -25000 25000
create_box 84 main bond/types 83 angle/types 82 extra/bond/per/atom 2 extra/angle/per/atom 3 extra/special/per/atom 6
Created orthogonal box = (-3000 -3000 -3000) to (3000 3000 3000)
  1 by 1 by 1 MPI processor grid
# region insertionVolume block -15000 15000 -15000 15000 -15000 15000

molecule productionIdealized84 productionIdealized84.txt
Read molecule template productionIdealized84:
  1 molecules
  0 fragments
  84 atoms with max type 84
  83 bonds with max type 83
  82 angles with max type 82
  0 dihedrals with max type 0
  0 impropers with max type 0
bond_style harmonic
angle_style harmonic
# Uncomment below if using dispRatio 0.00 or if NOT using INTEL package
#
pair_style none

# Uncomment below if using INTEL package AND NOT using dispRatio 0.00
#
# pair_style lj/cut 0
# pair_coeff * * 0 0


# pair_style zero 54.0
# pair_coeff * *
# pair_style dpd 1.0 20.0 23454
#  pair_coeff * * 0.0 0.0

# create_atoms 0 random 20 ${seed} insertionVolume mol productionIdealized ${seed} rotate 0 0 0 1
create_atoms 0 single 0 0 0 mol productionIdealized84 ${seed} rotate 0 0 0 1
create_atoms 0 single 0 0 0 mol productionIdealized84 1 rotate 0 0 0 1
Created 84 atoms
  using lattice units in orthogonal box = (-3000 -3000 -3000) to (3000 3000 3000)
  create_atoms CPU = 0.002 seconds

# Load in Idealized Chain Parameters:
read_data IdealizedCoeffs84.data add merge
Reading data file ...
  orthogonal box = (-3000 -3000 -3000) to (3000 3000 3000)
  1 by 1 by 1 MPI processor grid
Finding 1-2 1-3 1-4 neighbors ...
  special bond factors lj:    0        0        0       
  special bond factors coul:  0        0        0       
     2 = max # of 1-2 neighbors
     2 = max # of 1-3 neighbors
     4 = max # of 1-4 neighbors
    13 = max # of special neighbors
  special bonds CPU = 0.002 seconds
  read_data CPU = 0.004 seconds

# Verify that parameters were assigned as intended:
# write_dump all custom debug/massCheck.${dispRatio}.dump mol id type mass
# write_coeff debug/coeffCheck.${dispRatio}.data

# write_dump all image images/beforeDisplacement.${dispRatio}.png type type zoom 4 adiam 15.0 bond atom 5.0 size 1280 1280


group firstAtoms type 1
1 atoms in group firstAtoms
group lastAtoms type 84
1 atoms in group lastAtoms
displace_atoms firstAtoms move 0  ${dispDist} 0  units box
displace_atoms firstAtoms move 0  504.603405 0  units box
Displacing atoms ...
displace_atoms lastAtoms move  0 -${dispDist} 0  units box
displace_atoms lastAtoms move  0 -504.603405 0  units box
Displacing atoms ...

group internals type 2:83
82 atoms in group internals
group endpoints subtract all internals
2 atoms in group endpoints
# Change communication cutoff distance
# comm_modify mode single cutoff ${commDist} vel yes

# write_dump all image images/min.${dispRatio}.before.png type type zoom 4 adiam 15.0 bond atom 5.0 size 1280 1280
# This is keep the endpoints stationary during minimization
fix stationary endpoints setforce 0 0 0

# Minimize the initial structure for initializing velocities
minimize 0.0 1.0e-9 1000000 1000000
WARNING: Using 'neigh_modify every 1 delay 0 check yes' setting during minimization (src/min.cpp:187)
WARNING: No pairwise cutoff or binsize set. Atom sorting therefore disabled. (src/atom.cpp:2127)
Per MPI rank memory allocation (min/avg/max) = 7.991 | 7.991 | 7.991 Mbytes
   Step          Temp          E_pair         E_mol          TotEng         Press     
         0   0              0              1626707        1626707       -0.3583999    
    176217   0              0              3.1921656      3.1921656      3.1248683e-06
Loop time of 5.31978 on 1 procs for 176217 steps with 84 atoms

97.8% CPU use with 1 MPI tasks x 1 OpenMP threads

Minimization stats:
  Stopping criterion = linesearch alpha is zero
  Energy initial, next-to-last, final = 
      1626706.95266357   3.19216560920738   3.19216560920738
  Force two-norm initial, final = 4786.8952 0.00049975475
  Force max component initial, final = 3469.8246 0.00011200509
  Final line search alpha, max atom move = 0.03125 3.5001591e-06
  Iterations, force evaluations = 176217 337376

MPI task timing breakdown:
Section |  min time  |  avg time  |  max time  |%varavg| %total
---------------------------------------------------------------
Pair    | 0          | 0          | 0          |   0.0 |  0.00
Bond    | 4.3724     | 4.3724     | 4.3724     |   0.0 | 82.19
Neigh   | 0.010789   | 0.010789   | 0.010789   |   0.0 |  0.20
Comm    | 0.066041   | 0.066041   | 0.066041   |   0.0 |  1.24
Output  | 0          | 0          | 0          |   0.0 |  0.00
Modify  | 0.064749   | 0.064749   | 0.064749   |   0.0 |  1.22
Other   |            | 0.8058     |            |       | 15.15

Nlocal:             84 ave          84 max          84 min
Histogram: 1 0 0 0 0 0 0 0 0 0
Nghost:              0 ave           0 max           0 min
Histogram: 1 0 0 0 0 0 0 0 0 0
Neighs:              0 ave           0 max           0 min
Histogram: 1 0 0 0 0 0 0 0 0 0

Total # of neighbors = -1
Ave neighs/atom = -0.011904762
Ave special neighs/atom = 5.8571429
Neighbor list builds = 1913
Dangerous builds = 0
# Remove the stationary fix now the minimization is done
unfix stationary

# Change communication cutoff dist back to default
# comm_modify mode single cutoff 0.0

# write_dump all image images/min.${dispRatio}.post.png type type zoom 4 adiam 15.0 bond atom 5.0 size 1280 1280
# write_dump endpoints custom out/afterMinCoords.${dispRatio}.dump mol id type x y z

reset_timestep 0

velocity internals create 310.0 ${seed} dist gaussian
velocity internals create 310.0 1 dist gaussian

timestep 50
fix integrate internals nvt temp 310.0 310.0 $(25.0*dt)
fix integrate internals nvt temp 310.0 310.0 1250

# fix debug internals nve

compute internalsTemp internals temp
thermo 2000000
# thermo_style custom step temp
thermo_style custom step c_internalsTemp

compute molChunks all chunk/atom molecule

# group bowAtoms type 1
# group sternAtoms type 84

# compute bowComp bowAtoms property/atom fy
# compute sternComp sternAtoms property/atom fy

# compute endForce sternAtoms reduce ave fy

run 0
Per MPI rank memory allocation (min/avg/max) = 6.991 | 6.991 | 6.991 Mbytes
   Step     c_internalsTemp
         0   310          
Loop time of 2e-06 on 1 procs for 0 steps with 84 atoms

0.0% CPU use with 1 MPI tasks x 1 OpenMP threads

MPI task timing breakdown:
Section |  min time  |  avg time  |  max time  |%varavg| %total
---------------------------------------------------------------
Pair    | 0          | 0          | 0          |   0.0 |  0.00
Bond    | 0          | 0          | 0          |   0.0 |  0.00
Neigh   | 0          | 0          | 0          |   0.0 |  0.00
Comm    | 0          | 0          | 0          |   0.0 |  0.00
Output  | 0          | 0          | 0          |   0.0 |  0.00
Modify  | 0          | 0          | 0          |   0.0 |  0.00
Other   |            | 2e-06      |            |       |100.00

Nlocal:             84 ave          84 max          84 min
Histogram: 1 0 0 0 0 0 0 0 0 0
Nghost:              0 ave           0 max           0 min
Histogram: 1 0 0 0 0 0 0 0 0 0
Neighs:              0 ave           0 max           0 min
Histogram: 1 0 0 0 0 0 0 0 0 0

Total # of neighbors = -1
Ave neighs/atom = -0.011904762
Ave special neighs/atom = 5.8571429
Neighbor list builds = 0
Dangerous builds = 0
velocity internals scale 310.0


displace_atoms all move -$(xcm(all,x)) -$(xcm(all,y)) -$(xcm(all,z)) units box
displace_atoms all move -25.218666514717885008 -$(xcm(all,y)) -$(xcm(all,z)) units box
displace_atoms all move -25.218666514717885008 --397.74092987615694028 -$(xcm(all,z)) units box
displace_atoms all move -25.218666514717885008 --397.74092987615694028 -121.87595334529517288 units box
Displacing atoms ...
# write_dump newPos custom images/recentering84Coords.${dispRatio}.dump mol id type x y z

# fix printCenters all ave/time 100 200000 20000000 c_endForce file out84/timeAvg_sternForces.${dispRatio}.txt
dump movie all movie 1000 images/Visualize84Stretch.${dispRatio}.mp4 type type size 1280 720 zoom 15.0 adiam 10.0 bond atom 5.0 center s 0.55 0.45 0.5
dump movie all movie 1000 images/Visualize84Stretch.0.90.mp4 type type size 1280 720 zoom 15.0 adiam 10.0 bond atom 5.0 center s 0.55 0.45 0.5


neighbor 1.0 bin
# comm_modify cutoff 100
neigh_modify every 2000000 delay 2000000 check yes exclude molecule/inter all

run 2000000
Per MPI rank memory allocation (min/avg/max) = 7.242 | 7.242 | 7.242 Mbytes
   Step     c_internalsTemp
         0   310          
   2000000   285.33599    
Loop time of 198.556 on 1 procs for 2000000 steps with 84 atoms

Performance: 43514.088 ns/day, 0.001 hours/ns, 10072.706 timesteps/s
82.2% CPU use with 1 MPI tasks x 1 OpenMP threads

MPI task timing breakdown:
Section |  min time  |  avg time  |  max time  |%varavg| %total
---------------------------------------------------------------
Pair    | 0          | 0          | 0          |   0.0 |  0.00
Bond    | 19.351     | 19.351     | 19.351     |   0.0 |  9.75
Neigh   | 1.8e-05    | 1.8e-05    | 1.8e-05    |   0.0 |  0.00
Comm    | 0.34023    | 0.34023    | 0.34023    |   0.0 |  0.17
Output  | 171.99     | 171.99     | 171.99     |   0.0 | 86.62
Modify  | 6.2708     | 6.2708     | 6.2708     |   0.0 |  3.16
Other   |            | 0.6067     |            |       |  0.31

Nlocal:             84 ave          84 max          84 min
Histogram: 1 0 0 0 0 0 0 0 0 0
Nghost:              0 ave           0 max           0 min
Histogram: 1 0 0 0 0 0 0 0 0 0
Neighs:              0 ave           0 max           0 min
Histogram: 1 0 0 0 0 0 0 0 0 0

Total # of neighbors = -1
Ave neighs/atom = -0.011904762
Ave special neighs/atom = 5.8571429
Neighbor list builds = 1
Dangerous builds = 1

clear
OMP_NUM_THREADS environment is not set. Defaulting to 1 thread. (src/comm.cpp:98)
  using 1 OpenMP thread(s) per MPI task
Total wall time: 0:03:24
