print "The current dispRatio value is: ${dispRatio}"
The current dispRatio value is: 0.90

variable totLength equal 1121.3409 # Sum of all bond equilibrium lengths
variable dispDist equal "v_totLength*v_dispRatio/2"
variable commDist equal "v_dispDist*2"
# Displacement distance is divided by two because I want to displace both the bow and stern atoms of each chain.

variable seed equal 1
units real
boundary p p p

atom_style molecular

lattice sc 12000
Lattice spacing in x,y,z = 12000 12000 12000

region main block -1.5 2.5 -0.5 1.5 -1.5 2.5 units lattice
region insertionVolume block -1 2 0 1 -1 2 units lattice

# region main block -25000 25000 -25000 25000 -25000 25000
create_box 42 main bond/types 41 angle/types 40 extra/bond/per/atom 2 extra/angle/per/atom 3 extra/special/per/atom 6
Created orthogonal box = (-18000 -6000 -18000) to (30000 18000 30000)
  4 by 2 by 4 MPI processor grid
# region insertionVolume block -15000 15000 -15000 15000 -15000 15000

molecule productionIdealized productionIdealized.txt
Read molecule template productionIdealized:
# Molecule File for Single Filament of Idealized Chain of Alpha Spectrin
  1 molecules
  0 fragments
  42 atoms with max type 42
  41 bonds with max type 41
  40 angles with max type 40
  0 dihedrals with max type 0
  0 impropers with max type 0
bond_style harmonic
angle_style harmonic
# Uncomment below if using dispRatio 0.00 or if NOT using INTEL package
#
# pair_style none

# Uncomment below if using INTEL package AND NOT using dispRatio 0.00
#
pair_style lj/cut 0
pair_coeff * * 0 0

# pair_style zero 54.0
# pair_coeff * *
# pair_style dpd 1.0 20.0 23454
# pair_coeff * * 0.0 0.0

# create_atoms 0 random 20 ${seed} insertionVolume mol productionIdealized ${seed} rotate 0 0 0 1
create_atoms 0 region insertionVolume mol productionIdealized ${seed} rotate 0 0 0 1
create_atoms 0 region insertionVolume mol productionIdealized 1 rotate 0 0 0 1
Created 1344 atoms
  using lattice units in orthogonal box = (-18000 -6000 -18000) to (30000 18000 30000)
  create_atoms CPU = 0.002 seconds

# Load in Idealized Chain Parameters:
read_data IdealizedCoeffs.data add merge
Reading data file ...
  orthogonal box = (-18000 -6000 -18000) to (30000 18000 30000)
  4 by 2 by 4 MPI processor grid
Finding 1-2 1-3 1-4 neighbors ...
  special bond factors lj:    0        0        0       
  special bond factors coul:  0        0        0       
     3 = max # of 1-2 neighbors
     6 = max # of 1-3 neighbors
    18 = max # of 1-4 neighbors
    13 = max # of special neighbors
  special bonds CPU = 0.001 seconds
  read_data CPU = 0.006 seconds

# Verify that parameters were assigned as intended:
# write_dump all custom debug/massCheck.${dispRatio}.dump mol id type mass
# write_coeff debug/coeffCheck.${dispRatio}.data

# write_dump all image images/beforeDisplacement.${dispRatio}.png type type zoom 4 adiam 15.0 bond atom 5.0 size 1280 1280


group firstAtoms type 1
32 atoms in group firstAtoms
group lastAtoms type 42
32 atoms in group lastAtoms
displace_atoms firstAtoms move 0  ${dispDist} 0  units box
displace_atoms firstAtoms move 0  504.603405 0  units box
Displacing atoms ...
displace_atoms lastAtoms move  0 -${dispDist} 0  units box
displace_atoms lastAtoms move  0 -504.603405 0  units box
Displacing atoms ...

group internals type 2:41
1280 atoms in group internals
group endpoints subtract all internals
64 atoms in group endpoints
# Change communication cutoff distance
# comm_modify mode single cutoff ${commDist} vel yes

# write_dump all image images/min.${dispRatio}.before.png type type zoom 4 adiam 15.0 bond atom 5.0 size 1280 1280
# This is keep the endpoints stationary during minimization
fix stationary endpoints setforce 0.0 0.0 0.0

# Minimize the initial structure for initializing velocities
minimize 0.0 1.0e-9 100000 100000
----------------------------------------------------------
Using INTEL Package without Coprocessor.
Compiler: Intel Classic C++ 20.21.7 / Intel(R) C++ g++ 12.2 mode
SIMD compiler directives: Enabled
Precision: mixed
----------------------------------------------------------
Generated 0 of 861 mixed pair_coeff terms from geometric mixing rule
WARNING: Communication cutoff 0 is shorter than a bond length based estimate of 43.024667075. This may lead to errors. (../comm.cpp:730)
Neighbor list info ...
  update: every = 1 steps, delay = 0 steps, check = yes
  max neighbors/atom: 2000, page size: 100000
  master list distance cutoff = 0
  ghost atom cutoff = 0
  binsize = 48000, bins = 1 1 1
  1 neighbor lists, perpetual/occasional/extra = 1 0 0
  (1) pair lj/cut/intel, perpetual
      attributes: half, newton on, intel
      pair build: half/bin/newton/intel
      stencil: half/bin/3d/intel
      bin: intel
WARNING: No pairwise cutoff or binsize set. Atom sorting therefore disabled. (../atom.cpp:2438)
WARNING: Communication cutoff 0 is shorter than a bond length based estimate of 43.024667075. This may lead to errors. (../comm.cpp:730)
WARNING: Communication cutoff is 0.0. No ghost atoms will be generated. Atoms may get lost. (../comm_brick.cpp:210)
Per MPI rank memory allocation (min/avg/max) = 8.988 | 8.988 | 8.988 Mbytes
   Step          Temp          E_pair         E_mol          TotEng         Press     
         0   0              0              53055162       53055162      -0.046136766  
     15464   0              0              325.09249      325.09249      1.5880711e-06
Loop time of 0.440243 on 32 procs for 15464 steps with 1344 atoms

99.8% CPU use with 32 MPI tasks x 1 OpenMP threads

Minimization stats:
  Stopping criterion = linesearch alpha is zero
  Energy initial, next-to-last, final = 
      53055162.4552718   325.092494820274   325.092494820274
  Force two-norm initial, final = 26883.663 0.18090295
  Force max component initial, final = 3538.1195 0.014070056
  Final line search alpha, max atom move = 2.3841858e-07 3.3545628e-09
  Iterations, force evaluations = 15464 21298

MPI task timing breakdown:
Section |  min time  |  avg time  |  max time  |%varavg| %total
---------------------------------------------------------------
Pair    | 0.019991   | 0.021219   | 0.031098   |   1.4 |  4.82
Bond    | 0.049305   | 0.05045    | 0.056786   |   0.6 | 11.46
Neigh   | 0.020583   | 0.021591   | 0.022151   |   0.2 |  4.90
Comm    | 0.018961   | 0.020192   | 0.02526    |   0.9 |  4.59
Output  | 0          | 0          | 0          |   0.0 |  0.00
Modify  | 0.0069554  | 0.0076204  | 0.01194    |   1.0 |  1.73
Other   |            | 0.3192     |            |       | 72.50

Nlocal:             42 ave          42 max          42 min
Histogram: 32 0 0 0 0 0 0 0 0 0
Nghost:              0 ave           0 max           0 min
Histogram: 32 0 0 0 0 0 0 0 0 0
Neighs:              0 ave           0 max           0 min
Histogram: 32 0 0 0 0 0 0 0 0 0

Total # of neighbors = 0
Ave neighs/atom = 0
Ave special neighs/atom = 5.7142857
Neighbor list builds = 1084
Dangerous builds = 0
# Remove the stationary fix now the minimization is done
unfix stationary

# Change communication cutoff dist back to default
# comm_modify mode single cutoff 0.0

# write_dump all image images/min.${dispRatio}.post.png type type zoom 4 adiam 15.0 bond atom 5.0 size 1280 1280
# write_dump endpoints custom out/afterMinCoords.${dispRatio}.dump mol id type x y z

reset_timestep 0

velocity internals create 310.0 ${seed} dist gaussian
velocity internals create 310.0 1 dist gaussian

timestep 100
fix integrate internals nvt temp 310.0 310.0 $(25.0*dt)
fix integrate internals nvt temp 310.0 310.0 2500

# fix debug internals nve

compute internalsTemp internals temp
thermo 1000000
# thermo_style custom step temp
thermo_style custom step c_internalsTemp

# dump coordsDump all atom 1000 coords_dump.lammpstrj
# dump_modify coordsDump time yes sort id
# dump thermoDump internals yaml 100 thermo_dump.${displacement}.yaml mol id vx vy vz
# dump_modify thermoDump time yes thermo yes sort id
# dump coordsDCD all dcd 100 trajectory.${displacement}.dcd
# dump movie all movie 100 ForcedPolymerStretching.${displacement}.mp4 type type size 1280 720

# dump forceDump all yaml 100 force_dump.${displacement}.yaml mol id fx fy fz
# dump_modify forceDump time yes thermo yes sort id

# dump forceDump all custom 100 out/force_dump.${dispRatio}.dump id mol type fx fy fz

compute molChunks all chunk/atom molecule

group bowAtoms type 1
32 atoms in group bowAtoms
group sternAtoms type 42
32 atoms in group sternAtoms

# compute bowComp bowAtoms property/atom fy
compute sternComp sternAtoms property/atom fy

compute endForce sternAtoms reduce ave fy

run 0
----------------------------------------------------------
Using INTEL Package without Coprocessor.
Compiler: Intel Classic C++ 20.21.7 / Intel(R) C++ g++ 12.2 mode
SIMD compiler directives: Enabled
Precision: mixed
----------------------------------------------------------
Generated 0 of 861 mixed pair_coeff terms from geometric mixing rule
WARNING: Communication cutoff 0 is shorter than a bond length based estimate of 43.024667075. This may lead to errors. (../comm.cpp:730)
WARNING: Communication cutoff is 0.0. No ghost atoms will be generated. Atoms may get lost. (../comm_brick.cpp:210)
Per MPI rank memory allocation (min/avg/max) = 7.989 | 7.989 | 7.989 Mbytes
   Step     c_internalsTemp
         0   310          
Loop time of 2.96991e-06 on 32 procs for 0 steps with 1344 atoms

121.0% CPU use with 32 MPI tasks x 1 OpenMP threads

MPI task timing breakdown:
Section |  min time  |  avg time  |  max time  |%varavg| %total
---------------------------------------------------------------
Pair    | 0          | 0          | 0          |   0.0 |  0.00
Bond    | 0          | 0          | 0          |   0.0 |  0.00
Neigh   | 0          | 0          | 0          |   0.0 |  0.00
Comm    | 0          | 0          | 0          |   0.0 |  0.00
Output  | 0          | 0          | 0          |   0.0 |  0.00
Modify  | 0          | 0          | 0          |   0.0 |  0.00
Other   |            | 2.97e-06   |            |       |100.00

Nlocal:             42 ave          42 max          42 min
Histogram: 32 0 0 0 0 0 0 0 0 0
Nghost:              0 ave           0 max           0 min
Histogram: 32 0 0 0 0 0 0 0 0 0
Neighs:              0 ave           0 max           0 min
Histogram: 32 0 0 0 0 0 0 0 0 0

Total # of neighbors = 0
Ave neighs/atom = 0
Ave special neighs/atom = 5.7142857
Neighbor list builds = 0
Dangerous builds = 0
