
variable totLength equal 10

variable seed equal 1
units si
boundary p p p

atom_style molecular

region main block -100 100 -100 100 -100 100

create_box 11 main bond/types 10 angle/types 9 extra/bond/per/atom 2 extra/angle/per/atom 3 extra/special/per/atom 6
Created orthogonal box = (-100 -100 -100) to (100 100 100)
  1 by 1 by 1 MPI processor grid

molecule raw_WLC_11_Atoms Structures/Raw/raw_WLC_11.txt
Read molecule template raw_WLC_11_Atoms:
# Molecule File for a Worm-Like Chain with 11 atoms
  1 molecules
  0 fragments
  11 atoms with max type 11
  10 bonds with max type 10
  9 angles with max type 9
  0 dihedrals with max type 0
  0 impropers with max type 0
bond_style harmonic
# bond_coeff * 0 1
angle_style harmonic
# angle_coeff * 0 180
dihedral_style none
# pair_style none
# pair_style zero 10 nocoeff
# pair_coeff * *

create_atoms 0 single 0 0 0 mol raw_WLC_11_Atoms ${seed} rotate 0 0 0 1
create_atoms 0 single 0 0 0 mol raw_WLC_11_Atoms 1 rotate 0 0 0 1
Created 11 atoms
  using lattice units in orthogonal box = (-100 -100 -100) to (100 100 100)
  create_atoms CPU = 0.001 seconds

read_data Structures/Coeffs/coeffs_WLC_11.data add merge
Reading data file ...
  orthogonal box = (-100 -100 -100) to (100 100 100)
  1 by 1 by 1 MPI processor grid
Finding 1-2 1-3 1-4 neighbors ...
  special bond factors lj:    0        0        0       
  special bond factors coul:  0        0        0       
     3 = max # of 1-2 neighbors
     6 = max # of 1-3 neighbors
    18 = max # of 1-4 neighbors
    13 = max # of special neighbors
  special bonds CPU = 0.000 seconds
  read_data CPU = 0.003 seconds
bond_coeff * 0 1
angle_coeff * 0 180

group internals type 2:10
9 atoms in group internals
group endpoints subtract all internals
2 atoms in group endpoints


compute bondID all property/local btype batom1 batom2
compute angleID all property/local atype aatom1 aatom2 aatom3

variable k_restrain equal 1

fix restraint all arclengthrestraint raw_WLC_11_Atoms ${k_restrain} ${totLength}
fix restraint all arclengthrestraint raw_WLC_11_Atoms 1 ${totLength}
fix restraint all arclengthrestraint raw_WLC_11_Atoms 1 10
fix_modify restraint energy yes


comm_modify cutoff 100

velocity all set 0 0 0
thermo_style custom step pe ke fmax epair epair ebond eangle edihed etotal

run 0
WARNING: No fixes with time integration, atoms won't move (../verlet.cpp:60)
Neighbor list info ...
  update: every = 1 steps, delay = 0 steps, check = yes
  max neighbors/atom: 2000, page size: 100000
  master list distance cutoff = 0
  ghost atom cutoff = 100
  binsize = 200, bins = 1 1 1
  1 neighbor lists, perpetual/occasional/extra = 1 0 0
  (1) fix arclengthrestraint, perpetual
      attributes: half, newton on
      pair build: half/bin/newton
      stencil: half/bin/3d
      bin: standard
WARNING: No pairwise cutoff or binsize set. Atom sorting therefore disabled. (../atom.cpp:2442)
Per MPI rank memory allocation (min/avg/max) = 8.183 | 8.183 | 8.183 Mbytes
   Step         PotEng         KinEng          Fmax          E_pair         E_pair         E_bond        E_angle        E_dihed         TotEng    
         0   0.35343088     0              0              0              0              0              0              0              0.35343088   
Loop time of 3.841e-06 on 1 procs for 0 steps with 11 atoms

26.0% CPU use with 1 MPI tasks x 1 OpenMP threads

MPI task timing breakdown:
Section |  min time  |  avg time  |  max time  |%varavg| %total
---------------------------------------------------------------
Pair    | 0          | 0          | 0          |   0.0 |  0.00
Bond    | 0          | 0          | 0          |   0.0 |  0.00
Neigh   | 0          | 0          | 0          |   0.0 |  0.00
Comm    | 0          | 0          | 0          |   0.0 |  0.00
Output  | 0          | 0          | 0          |   0.0 |  0.00
Modify  | 0          | 0          | 0          |   0.0 |  0.00
Other   |            | 3.841e-06  |            |       |100.00

Nlocal:             11 ave          11 max          11 min
Histogram: 1 0 0 0 0 0 0 0 0 0
Nghost:             77 ave          77 max          77 min
Histogram: 1 0 0 0 0 0 0 0 0 0
Neighs:              1 ave           1 max           1 min
Histogram: 1 0 0 0 0 0 0 0 0 0

Total # of neighbors = 1
Ave neighs/atom = 0.090909091
Ave special neighs/atom = 4.9090909
Neighbor list builds = 0
Dangerous builds = 0

# fix stationary endpoints setforce 0 0 0
# min_modify dmax 10 norm max
# minimize 0.0 0 1000000000 1000000000
# minimize 0 0 100 100
# unfix stationary

# I have a feeling that setting the force of the endpoints to 0 0 0
# during minimization is preventing the arclengthrestraint fix
# from having the end-to-end arc length reach our desired value
#
# So now, I will try damped dynamics, where time-integration
# is performed only on the internal atoms
#

reset_timestep 0
timestep 1e-3
# min_style fire
# min_modify dmax 10 norm max
# minimize 0 0 1000000 1000000

# fix integrator internals nve/limit 0.1
 fix integrator all nve/limit 0.001
# fix damper internals viscous 100000
 fix damper all viscous 100
# velocity all set 0 0 0
run 0
Per MPI rank memory allocation (min/avg/max) = 8.183 | 8.183 | 8.183 Mbytes
   Step         PotEng         KinEng          Fmax          E_pair         E_pair         E_bond        E_angle        E_dihed         TotEng    
         0   0.35343088     0              0              0              0              0              0              0              0.35343088   
Loop time of 4.33e-06 on 1 procs for 0 steps with 11 atoms

23.1% CPU use with 1 MPI tasks x 1 OpenMP threads

MPI task timing breakdown:
Section |  min time  |  avg time  |  max time  |%varavg| %total
---------------------------------------------------------------
Pair    | 0          | 0          | 0          |   0.0 |  0.00
Bond    | 0          | 0          | 0          |   0.0 |  0.00
Neigh   | 0          | 0          | 0          |   0.0 |  0.00
Comm    | 0          | 0          | 0          |   0.0 |  0.00
Output  | 0          | 0          | 0          |   0.0 |  0.00
Modify  | 0          | 0          | 0          |   0.0 |  0.00
Other   |            | 4.33e-06   |            |       |100.00

Nlocal:             11 ave          11 max          11 min
Histogram: 1 0 0 0 0 0 0 0 0 0
Nghost:             77 ave          77 max          77 min
Histogram: 1 0 0 0 0 0 0 0 0 0
Neighs:              1 ave           1 max           1 min
Histogram: 1 0 0 0 0 0 0 0 0 0

Total # of neighbors = 1
Ave neighs/atom = 0.090909091
Ave special neighs/atom = 4.9090909
Neighbor list builds = 0
Dangerous builds = 0
run 10
Per MPI rank memory allocation (min/avg/max) = 8.183 | 8.183 | 8.183 Mbytes
   Step         PotEng         KinEng          Fmax          E_pair         E_pair         E_bond        E_angle        E_dihed         TotEng    
         0   0.35343088     0              0              0              0              0              0              0              0.35343088   
        10   0.35346658     1.4115302e-05  0.09916107     0              0              0              0              0              0.3534807    
Loop time of 0.00176999 on 1 procs for 10 steps with 11 atoms

100.0% CPU use with 1 MPI tasks x 1 OpenMP threads

MPI task timing breakdown:
Section |  min time  |  avg time  |  max time  |%varavg| %total
---------------------------------------------------------------
Pair    | 0          | 0          | 0          |   0.0 |  0.00
Bond    | 1.5298e-05 | 1.5298e-05 | 1.5298e-05 |   0.0 |  0.86
Neigh   | 0          | 0          | 0          |   0.0 |  0.00
Comm    | 3.0797e-05 | 3.0797e-05 | 3.0797e-05 |   0.0 |  1.74
Output  | 8.3809e-05 | 8.3809e-05 | 8.3809e-05 |   0.0 |  4.74
Modify  | 0.0015665  | 0.0015665  | 0.0015665  |   0.0 | 88.50
Other   |            | 7.361e-05  |            |       |  4.16

Nlocal:             11 ave          11 max          11 min
Histogram: 1 0 0 0 0 0 0 0 0 0
Nghost:             77 ave          77 max          77 min
Histogram: 1 0 0 0 0 0 0 0 0 0
Neighs:              1 ave           1 max           1 min
Histogram: 1 0 0 0 0 0 0 0 0 0

Total # of neighbors = 1
Ave neighs/atom = 0.090909091
Ave special neighs/atom = 4.9090909
Neighbor list builds = 0
Dangerous builds = 0


reset_timestep 0

compute blen all bond/local dist
compute bcomps all bond/local dx dy dz
compute end2end all reduce sum c_blen inputs local
variable totLen equal c_end2end

compute forces all property/atom fx fy fz
compute sumForces all reduce sum c_forces[1] c_forces[2] c_forces[3]
variable totForce vector c_sumForces

variable validationFile string "Out_relaxation/validation/validation_WLC_11.txt"

run 0
Per MPI rank memory allocation (min/avg/max) = 8.488 | 8.488 | 8.488 Mbytes
   Step         PotEng         KinEng          Fmax          E_pair         E_pair         E_bond        E_angle        E_dihed         TotEng    
         0   0.35346658     1.4115302e-05  0.16173699     0              0              0              0              0              0.3534807    
Loop time of 3.841e-06 on 1 procs for 0 steps with 11 atoms

130.2% CPU use with 1 MPI tasks x 1 OpenMP threads

MPI task timing breakdown:
Section |  min time  |  avg time  |  max time  |%varavg| %total
---------------------------------------------------------------
Pair    | 0          | 0          | 0          |   0.0 |  0.00
Bond    | 0          | 0          | 0          |   0.0 |  0.00
Neigh   | 0          | 0          | 0          |   0.0 |  0.00
Comm    | 0          | 0          | 0          |   0.0 |  0.00
Output  | 0          | 0          | 0          |   0.0 |  0.00
Modify  | 0          | 0          | 0          |   0.0 |  0.00
Other   |            | 3.841e-06  |            |       |100.00

Nlocal:             11 ave          11 max          11 min
Histogram: 1 0 0 0 0 0 0 0 0 0
Nghost:             77 ave          77 max          77 min
Histogram: 1 0 0 0 0 0 0 0 0 0
Neighs:              0 ave           0 max           0 min
Histogram: 1 0 0 0 0 0 0 0 0 0

Total # of neighbors = 0
Ave neighs/atom = 0
Ave special neighs/atom = 4.9090909
Neighbor list builds = 0
Dangerous builds = 0

print "# End-to-end arc length following minimization: ${totLen}" file ${validationFile}
print "# End-to-end arc length following minimization: ${totLen}" file Out_relaxation/validation/validation_WLC_11.txt
# End-to-end arc length following minimization: 12.6588214750816
write_dump all local ${validationFile} c_blen modify append yes header no
write_dump all local Out_relaxation/validation/validation_WLC_11.txt c_blen modify append yes header no
print "" append ${validationFile}
print "" append Out_relaxation/validation/validation_WLC_11.txt

print "# Bond component distances: x y z" append ${validationFile}
print "# Bond component distances: x y z" append Out_relaxation/validation/validation_WLC_11.txt
# Bond component distances: x y z
write_dump all local ${validationFile} c_bcomps[1] c_bcomps[2] c_bcomps[3] modify append yes header no
write_dump all local Out_relaxation/validation/validation_WLC_11.txt c_bcomps[1] c_bcomps[2] c_bcomps[3] modify append yes header no
print "" append ${validationFile}
print "" append Out_relaxation/validation/validation_WLC_11.txt

print "# Total forces on system following minimization: ${totForce}" append ${validationFile}
print "# Total forces on system following minimization: ${totForce}" append Out_relaxation/validation/validation_WLC_11.txt
# Total forces on system following minimization: [-0.2076118089708684,0.01716180855778663,0.10712589851613423]
write_dump all custom ${validationFile} id type mol fx fy fz modify append yes header no
write_dump all custom Out_relaxation/validation/validation_WLC_11.txt id type mol fx fy fz modify append yes header no


variable natoms equal count(all)

variable productionFile string "Out_relaxation/relaxed_WLC_11.txt"

print "# Relaxed Production Model for Worm-Like Chain" file ${productionFile}
print "# Relaxed Production Model for Worm-Like Chain" file Out_relaxation/relaxed_WLC_11.txt
# Relaxed Production Model for Worm-Like Chain

print """
$(count(all)) atoms
$(count(all)-1) bonds
$(count(all)-2) angles
0 dihedrals
0 impropers
""" append ${productionFile}
print """
$(count(all)) atoms
$(count(all)-1) bonds
$(count(all)-2) angles
0 dihedrals
0 impropers
""" append Out_relaxation/relaxed_WLC_11.txt

11 atoms
10 bonds
9 angles
0 dihedrals
0 impropers


print """
Coords
""" append ${productionFile}
print """
Coords
""" append Out_relaxation/relaxed_WLC_11.txt

Coords

write_dump all custom ${productionFile} id x y z modify append yes header no sort id
write_dump all custom Out_relaxation/relaxed_WLC_11.txt id x y z modify append yes header no sort id

print """
Types
""" append ${productionFile}
print """
Types
""" append Out_relaxation/relaxed_WLC_11.txt

Types

write_dump all custom ${productionFile} id type modify append yes header no sort id
write_dump all custom Out_relaxation/relaxed_WLC_11.txt id type modify append yes header no sort id

print """
Molecules
""" append ${productionFile}
print """
Molecules
""" append Out_relaxation/relaxed_WLC_11.txt

Molecules

write_dump all custom ${productionFile} id mol modify append yes header no sort id
write_dump all custom Out_relaxation/relaxed_WLC_11.txt id mol modify append yes header no sort id

print """
Bonds
""" append ${productionFile}
print """
Bonds
""" append Out_relaxation/relaxed_WLC_11.txt

Bonds

write_dump all local ${productionFile} index c_bondID[*] modify append yes header no
write_dump all local Out_relaxation/relaxed_WLC_11.txt index c_bondID[*] modify append yes header no
# write_dump all local ${productionFile} index c_bondID[0] c_bondID[1] c_bondID[2] modify append yes header no sort 2

print """
Angles
""" append ${productionFile}
print """
Angles
""" append Out_relaxation/relaxed_WLC_11.txt

Angles

# write_dump all local ${productionFile} index c_angleID[0] c_angleID[1] c_angleID[2] c_angleID[3] modify append yes header no sort 2
write_dump all local ${productionFile} index c_angleID[*] modify append yes header no
write_dump all local Out_relaxation/relaxed_WLC_11.txt index c_angleID[*] modify append yes header no
Total wall time: 0:00:00
