
variable totLength equal 10
variable dispDist equal "v_totLength * v_dispRatio / 2"

variable seed equal 1
units real
boundary p p p

atom_style molecular

region main block -500 500 -500 500 -500 500

create_box 21 main bond/types 20 angle/types 19 extra/bond/per/atom 2 extra/angle/per/atom 3 extra/special/per/atom 6
Created orthogonal box = (-500 -500 -500) to (500 500 500)
  1 by 1 by 1 MPI processor grid

molecule WLC_21 Structures/Production/relaxed_WLC_21.txt
Read molecule template WLC_21:
# Relaxed Production Model for Worm-Like Chain
  1 molecules
  0 fragments
  21 atoms with max type 21
  20 bonds with max type 20
  19 angles with max type 19
  0 dihedrals with max type 0
  0 impropers with max type 0
bond_style harmonic
angle_style harmonic
dihedral_style none

create_atoms 0 single 0 0 0 mol WLC_21 ${seed} rotate 0 0 0 1
create_atoms 0 single 0 0 0 mol WLC_21 1 rotate 0 0 0 1
Created 21 atoms
  using lattice units in orthogonal box = (-500 -500 -500) to (500 500 500)
  create_atoms CPU = 0.001 seconds

read_data Structures/Coeffs/coeffs_WLC_21.data add merge
Reading data file ...
  orthogonal box = (-500 -500 -500) to (500 500 500)
  1 by 1 by 1 MPI processor grid
Finding 1-2 1-3 1-4 neighbors ...
  special bond factors lj:    0        0        0       
  special bond factors coul:  0        0        0       
     3 = max # of 1-2 neighbors
     6 = max # of 1-3 neighbors
    18 = max # of 1-4 neighbors
    13 = max # of special neighbors
  special bonds CPU = 0.000 seconds
  read_data CPU = 0.008 seconds
bond_coeff * 0 1

group internals type 2:20
19 atoms in group internals
group endpointAlpha type 1
1 atoms in group endpointAlpha
group endpointOmega type 21
1 atoms in group endpointOmega
group endpoints subtract all internals
2 atoms in group endpoints

displace_atoms endpointAlpha move 0 ${dispDist} 0 units box
displace_atoms endpointAlpha move 0 0.15 0 units box
Displacing atoms ...
displace_atoms endpointOmega move 0 -${dispDist} 0 units box
displace_atoms endpointOmega move 0 -0.15 0 units box
Displacing atoms ...

variable k_restrain equal 200

fix restraint all arclengthrestraint WLC_21 ${k_restrain} ${totLength}
fix restraint all arclengthrestraint WLC_21 200 ${totLength}
fix restraint all arclengthrestraint WLC_21 200 10
fix_modify restraint energy yes

comm_modify cutoff 100

compute internalsTemp internals temp
thermo_style custom step pe ke fnorm epair epair ebond eangle edihed etotal

fix stationary endpoints setforce 0 0 0
min_modify dmax 10 norm max line backtrack # backtrack is necessary because minimizing points of restraint energy are degenerate
minimize 0 0 100000 100000
Neighbor list info ...
  update: every = 1 steps, delay = 0 steps, check = yes
  max neighbors/atom: 2000, page size: 100000
  master list distance cutoff = 0
  ghost atom cutoff = 100
  binsize = 1000, bins = 1 1 1
  1 neighbor lists, perpetual/occasional/extra = 1 0 0
  (1) fix arclengthrestraint, perpetual
      attributes: half, newton on
      pair build: half/bin/newton
      stencil: half/bin/3d
      bin: standard
WARNING: No pairwise cutoff or binsize set. Atom sorting therefore disabled. (../atom.cpp:2442)
Per MPI rank memory allocation (min/avg/max) = 8.621 | 8.621 | 8.621 Mbytes
   Step         PotEng         KinEng         Fnorm          E_pair         E_pair         E_bond        E_angle        E_dihed         TotEng    
         0   17.911546      0              2384.1278      0              0              0              17.764997      0              17.911546    
       183   17.742777      0              13.734117      0              0              0              17.681178      0              17.742777    
Loop time of 0.0180501 on 1 procs for 183 steps with 21 atoms

100.0% CPU use with 1 MPI tasks x 1 OpenMP threads

Minimization stats:
  Stopping criterion = linesearch alpha is zero
  Energy initial, next-to-last, final = 
      17.9115461182066   17.7427772996033   17.7427772996033
  Force two-norm initial, final = 2384.1278 13.734117
  Force max component initial, final = 1434.8845 6.5443876
  Final line search alpha, max atom move = 2.3283064e-10 1.523734e-09
  Iterations, force evaluations = 183 4195

MPI task timing breakdown:
Section |  min time  |  avg time  |  max time  |%varavg| %total
---------------------------------------------------------------
Pair    | 0          | 0          | 0          |   0.0 |  0.00
Bond    | 0.0053934  | 0.0053934  | 0.0053934  |   0.0 | 29.88
Neigh   | 0.0017117  | 0.0017117  | 0.0017117  |   0.0 |  9.48
Comm    | 0.00066253 | 0.00066253 | 0.00066253 |   0.0 |  3.67
Output  | 0          | 0          | 0          |   0.0 |  0.00
Modify  | 0.0028185  | 0.0028185  | 0.0028185  |   0.0 | 15.61
Other   |            | 0.007464   |            |       | 41.35

Nlocal:             21 ave          21 max          21 min
Histogram: 1 0 0 0 0 0 0 0 0 0
Nghost:              0 ave           0 max           0 min
Histogram: 1 0 0 0 0 0 0 0 0 0
Neighs:              0 ave           0 max           0 min
Histogram: 1 0 0 0 0 0 0 0 0 0

Total # of neighbors = 0
Ave neighs/atom = 0
Ave special neighs/atom = 5.4285714
Neighbor list builds = 886
Dangerous builds = 521
unfix stationary

reset_timestep 0
timestep 1e-6

fix integrate internals nvt temp 310.0 310.0 $(10.0*dt)
fix integrate internals nvt temp 310.0 310.0 9.999999999999999124e-06
velocity internals create 310.0 ${seed} dist gaussian
velocity internals create 310.0 1 dist gaussian


compute endForce endpointOmega reduce ave fy # Obtain force on endpoint
variable computedForce equal c_endForce # fix print cannot directly print out computes
thermo_style custom step c_endForce c_integrate_temp temp ke

neighbor 100.0 bin
run 0
WARNING: Communication cutoff 100 is shorter than a bond length based estimate of 101.5. This may lead to errors. (../comm.cpp:730)
Per MPI rank memory allocation (min/avg/max) = 7.496 | 7.496 | 7.496 Mbytes
   Step       c_endForce   c_integrate_temp      Temp          KinEng    
         0  -1.3376344      310            279            16.63292     
Loop time of 8.42e-07 on 1 procs for 0 steps with 21 atoms

118.8% CPU use with 1 MPI tasks x 1 OpenMP threads

MPI task timing breakdown:
Section |  min time  |  avg time  |  max time  |%varavg| %total
---------------------------------------------------------------
Pair    | 0          | 0          | 0          |   0.0 |  0.00
Bond    | 0          | 0          | 0          |   0.0 |  0.00
Neigh   | 0          | 0          | 0          |   0.0 |  0.00
Comm    | 0          | 0          | 0          |   0.0 |  0.00
Output  | 0          | 0          | 0          |   0.0 |  0.00
Modify  | 0          | 0          | 0          |   0.0 |  0.00
Other   |            | 8.42e-07   |            |       |100.00

Nlocal:             21 ave          21 max          21 min
Histogram: 1 0 0 0 0 0 0 0 0 0
Nghost:              0 ave           0 max           0 min
Histogram: 1 0 0 0 0 0 0 0 0 0
Neighs:              0 ave           0 max           0 min
Histogram: 1 0 0 0 0 0 0 0 0 0

Total # of neighbors = 0
Ave neighs/atom = 0
Ave special neighs/atom = 5.4285714
Neighbor list builds = 0
Dangerous builds = 0
velocity internals scale 310.0

variable sampFreq equal 10000000 # Sample force on endpoints every this-many timesteps.
variable numSamps equal 100 # Number of force samples to take.
variable numSteps equal "v_sampFreq * v_numSamps"
thermo ${sampFreq}
thermo 10000000

# Print out force on endpoint below
fix printForces all print ${sampFreq} "${computedForce}" file Out_Force_Extension/data/data_WLC_21_dispRatio_$(v_dispRatio:%.2f).txt screen no
fix printForces all print 10000000 "${computedForce}" file Out_Force_Extension/data/data_WLC_21_dispRatio_$(v_dispRatio:%.2f).txt screen no
fix printForces all print 10000000 "${computedForce}" file Out_Force_Extension/data/data_WLC_21_dispRatio_0.03.txt screen no

### Below is for validation purposes ###
compute blen all bond/local dist
compute end2end all reduce sum c_blen inputs local
variable totLen equal c_end2end

variable computedTemp equal c_integrate_temp
# variable sysTemp equal temp
# variable sysKE equal ke

variable validFile_end2end string "Out_Force_Extension/validation/end2end_WLC_21_Force_Extension_dispRatio_$(v_dispRatio:%.2f).txt"
Out_Force_Extension/validation/end2end_WLC_21_Force_Extension_dispRatio_0.03.txt
fix print_end2end all print ${sampFreq} "${totLen}" file ${validFile_end2end} screen no title "End-to-end arc length of WLC with 21 atoms"
fix print_end2end all print 10000000 "${totLen}" file ${validFile_end2end} screen no title "End-to-end arc length of WLC with 21 atoms"
fix print_end2end all print 10000000 "${totLen}" file Out_Force_Extension/validation/end2end_WLC_21_Force_Extension_dispRatio_0.03.txt screen no title "End-to-end arc length of WLC with 21 atoms"

variable validFile_internalsTemp string "Out_Force_Extension/validation/internalsTemp_WLC_21_Force_Extension_dispRatio_$(v_dispRatio:%.2f).txt"
Out_Force_Extension/validation/internalsTemp_WLC_21_Force_Extension_dispRatio_0.03.txt
fix print_internalsTemp all print ${sampFreq} "${computedTemp}" file ${validFile_internalsTemp} screen no title "Temperature (K) of internal atoms of WLC with 21 atoms"
fix print_internalsTemp all print 10000000 "${computedTemp}" file ${validFile_internalsTemp} screen no title "Temperature (K) of internal atoms of WLC with 21 atoms"
fix print_internalsTemp all print 10000000 "${computedTemp}" file Out_Force_Extension/validation/internalsTemp_WLC_21_Force_Extension_dispRatio_0.03.txt screen no title "Temperature (K) of internal atoms of WLC with 21 atoms"
### End of validation block ###


run ${numSteps}
run 1000000000
WARNING: Communication cutoff 100 is shorter than a bond length based estimate of 101.5. This may lead to errors. (../comm.cpp:730)
Per MPI rank memory allocation (min/avg/max) = 7.572 | 7.572 | 7.572 Mbytes
   Step       c_endForce   c_integrate_temp      Temp          KinEng    
         0  -1.3376344      310            279            16.63292     
  10000000  -4.8387652      242.60043      218.34039      13.016625    
  20000000  -3.23366        329.86046      296.87442      17.698525    
  30000000  -4.3761802      366.25747      329.63172      19.651391    
  40000000  -3.2418603      428.61198      385.75078      22.996996    
  50000000  -2.3223397      370.14337      333.12903      19.859887    
  60000000   0.24355989     243.16787      218.85109      13.04707     
  70000000  -1.6844127      431.88695      388.69825      23.172713    
  80000000   1.0293675      427.71158      384.94042      22.948686    
  90000000   1.7416896      349.81019      314.82917      18.768919    
 100000000   0.73326675     406.9563       366.26067      21.83507     
 110000000   6.7777119      298.88267      268.9944       16.036424    
 120000000   2.6222526      376.99926      339.29933      20.227737    
 130000000  -0.53149564     385.54274      346.98847      20.686134    
 140000000   4.449367       323.33308      290.99977      17.348301    
 150000000   3.6940543      309.11321      278.20189      16.58534     
 160000000   2.9682037      172.89006      155.60106      9.2763439    
 170000000   3.9126462      311.65929      280.49336      16.721949    
 180000000   2.563612       281.97519      253.77767      15.129261    
 190000000   0.93354078     267.98091      241.18282      14.378403    
 200000000   1.8731308      364.44903      328.00412      19.55436     
 210000000  -2.70844        338.96533      305.06879      18.187042    
 220000000  -2.2714437      325.44423      292.89981      17.461574    
 230000000   0.44861176     371.59452      334.43506      19.937748    
 240000000  -2.7975198      198.13068      178.31761      10.630619    
 250000000  -6.3616385      279.55128      251.59615      14.999207    
 260000000  -0.69979742     351.78259      316.60433      18.874747    
 270000000   1.8500331      308.98659      278.08793      16.578546    
 280000000  -4.0635468      338.82408      304.94167      18.179464    
 290000000  -3.9604527      367.11198      330.40078      19.697239    
 300000000   1.2322193      238.90444      215.01399      12.818318    
 310000000   4.0733105      334.29583      300.86624      17.936502    
 320000000   1.6771765      365.75264      329.17737      19.624304    
 330000000  -1.691574       304.7429       274.26861      16.350852    
 340000000  -4.6063083      402.09879      361.88891      21.574442    
 350000000  -2.9649296      254.94463      229.45016      13.678947    
 360000000   0.18964353     333.97814      300.58032      17.919457    
 370000000   2.0412399      448.57414      403.71673      24.068058    
 380000000  -1.5953108      246.69189      222.0227       13.23615     
 390000000  -0.28037145     269.9653       242.96877      14.484875    
 400000000   3.2413792      433.16093      389.84483      23.241068    
 410000000   1.2426756      261.66692      235.50023      14.039629    
 420000000  -3.5526663      335.34864      301.81377      17.992991    
 430000000  -4.9016929      306.20647      275.58582      16.42938     
 440000000   8.195259       264.53616      238.08254      14.193577    
 450000000  -1.5804866      306.56925      275.91232      16.448845    
 460000000  -5.5419942      247.69378      222.9244       13.289906    
 470000000  -4.9390736      314.24224      282.81802      16.860536    
 480000000  -1.4368063      254.28787      228.85908      13.643709    
 490000000  -1.9411562      318.70835      286.83752      17.100163    
 500000000   0.90150744     280.37451      252.33706      15.043377    
 510000000   1.6195747      214.5466       193.09194      11.511408    
 520000000   0.84814213     301.75357      271.57822      16.190461    
 530000000   2.5496135      296.96823      267.2714       15.933706    
 540000000   3.3416161      329.19327      296.27394      17.662727    
 550000000  -3.6356708      337.46963      303.72267      18.106792    
 560000000  -4.622142       356.79641      321.11677      19.143762    
 570000000   8.4789059      261.86094      235.67485      14.050039    
 580000000  -6.272673       351.00527      315.90474      18.833041    
 590000000   7.1125043      226.47272      203.82544      12.151299    
 600000000   0.5275347      487.27757      438.54981      26.144674    
 610000000   3.9628087      393.48574      354.13717      21.112312    
 620000000   5.003105       205.73996      185.16597      11.038891    
 630000000   0.094512574    268.78417      241.90576      14.421502    
 640000000   0.56664733     268.20309      241.38279      14.390325    
 650000000   6.9088155      385.56481      347.00833      20.687318    
 660000000  -10.85393       436.69289      393.0236       23.430574    
 670000000   0.28322036     263.26176      236.93559      14.1252      
 680000000   1.7327018      394.35298      354.91768      21.158844    
 690000000  -2.0693658      351.32236      316.19012      18.850054    
 700000000   4.1030451      333.52949      300.17654      17.895385    
 710000000   4.9184406      200.55133      180.4962       10.760498    
 720000000  -3.0502611      312.03314      280.82982      16.742007    
 730000000   10.340505      378.86693      340.98024      20.327947    
 740000000   4.3420565      350.14343      315.12908      18.786799    
 750000000  -3.5275447      288.69804      259.82824      15.489973    
 760000000  -3.8961903      299.89248      269.90323      16.090605    
 770000000  -0.51286569     264.2183       237.79647      14.176522    
 780000000  -4.831214       325.65135      293.08622      17.472687    
 790000000  -7.4271194      376.94873      339.25386      20.225026    
 800000000  -2.6917562      228.86098      205.97488      12.27944     
 810000000  -3.0389975      418.43451      376.59106      22.450928    
 820000000   2.8235567      309.89808      278.90827      16.627452    
 830000000  -2.2705201      289.25932      260.33339      15.520088    
 840000000   1.1679353      247.78722      223.00849      13.294919    
 850000000   0.35457376     274.98513      247.48662      14.754212    
 860000000  -0.24340414     379.52869      341.57582      20.363453    
 870000000   6.6330764      373.34793      336.01314      20.031827    
 880000000   9.0465302      343.14734      308.8326       18.411426    
 890000000  -1.032137       333.14358      299.82922      17.874679    
 900000000  -6.7424225      349.72538      314.75284      18.764369    
 910000000  -2.5651749      317.83702      286.05332      17.053412    
 920000000  -4.3595587      258.62125      232.75912      13.876215    
 930000000   0.77629192     381.54692      343.39223      20.47174     
 940000000   4.9941441      248.88608      223.99747      13.353878    
 950000000   1.0924191      259.19289      233.2736       13.906886    
 960000000   0.25709069     317.8787       286.09083      17.055648    
 970000000   5.9678689      209.12153      188.20938      11.220328    
 980000000  -0.14401771     359.72352      323.75117      19.300815    
 990000000  -2.9738554      230.56743      207.51068      12.370999    
1000000000  -3.3246806      308.77063      277.89357      16.566959    
Loop time of 2586.02 on 1 procs for 1000000000 steps with 21 atoms

Performance: 0.033 ns/day, 718.338 hours/ns, 386694.905 timesteps/s, 8.121 Matom-step/s
100.0% CPU use with 1 MPI tasks x 1 OpenMP threads

MPI task timing breakdown:
Section |  min time  |  avg time  |  max time  |%varavg| %total
---------------------------------------------------------------
Pair    | 0          | 0          | 0          |   0.0 |  0.00
Bond    | 998.27     | 998.27     | 998.27     |   0.0 | 38.60
Neigh   | 0          | 0          | 0          |   0.0 |  0.00
Comm    | 68.843     | 68.843     | 68.843     |   0.0 |  2.66
Output  | 0.0014848  | 0.0014848  | 0.0014848  |   0.0 |  0.00
Modify  | 1221.3     | 1221.3     | 1221.3     |   0.0 | 47.23
Other   |            | 297.6      |            |       | 11.51

Nlocal:             21 ave          21 max          21 min
Histogram: 1 0 0 0 0 0 0 0 0 0
Nghost:              0 ave           0 max           0 min
Histogram: 1 0 0 0 0 0 0 0 0 0
Neighs:              0 ave           0 max           0 min
Histogram: 1 0 0 0 0 0 0 0 0 0

Total # of neighbors = 0
Ave neighs/atom = 0
Ave special neighs/atom = 5.4285714
Neighbor list builds = 0
Dangerous builds = 0
Total wall time: 0:43:06
