
variable totLength equal 10
variable dispDist equal "v_totLength * v_dispRatio / 2"

variable seed equal 1
units real
boundary p p p

atom_style molecular

region main block -500 500 -500 500 -500 500

create_box 11 main bond/types 10 angle/types 9 extra/bond/per/atom 2 extra/angle/per/atom 3 extra/special/per/atom 6
Created orthogonal box = (-500 -500 -500) to (500 500 500)
  1 by 1 by 1 MPI processor grid

molecule WLC_11 Structures/Production/relaxed_WLC_11.txt
Read molecule template WLC_11:
# Relaxed Production Model for Worm-Like Chain
  1 molecules
  0 fragments
  11 atoms with max type 11
  10 bonds with max type 10
  9 angles with max type 9
  0 dihedrals with max type 0
  0 impropers with max type 0
bond_style harmonic
angle_style harmonic
dihedral_style none

create_atoms 0 single 0 0 0 mol WLC_11 ${seed} rotate 0 0 0 1
create_atoms 0 single 0 0 0 mol WLC_11 1 rotate 0 0 0 1
Created 11 atoms
  using lattice units in orthogonal box = (-500 -500 -500) to (500 500 500)
  create_atoms CPU = 0.001 seconds

read_data Structures/Coeffs/coeffs_WLC_11.data add merge
Reading data file ...
  orthogonal box = (-500 -500 -500) to (500 500 500)
  1 by 1 by 1 MPI processor grid
Finding 1-2 1-3 1-4 neighbors ...
  special bond factors lj:    0        0        0       
  special bond factors coul:  0        0        0       
     3 = max # of 1-2 neighbors
     6 = max # of 1-3 neighbors
    18 = max # of 1-4 neighbors
    13 = max # of special neighbors
  special bonds CPU = 0.000 seconds
  read_data CPU = 0.001 seconds
bond_coeff * 0 1

group internals type 2:10
9 atoms in group internals
group endpointAlpha type 1
1 atoms in group endpointAlpha
group endpointOmega type 11
1 atoms in group endpointOmega
group endpoints subtract all internals
2 atoms in group endpoints

displace_atoms endpointAlpha move 0 ${dispDist} 0 units box
displace_atoms endpointAlpha move 0 0.75 0 units box
Displacing atoms ...
displace_atoms endpointOmega move 0 -${dispDist} 0 units box
displace_atoms endpointOmega move 0 -0.75 0 units box
Displacing atoms ...

variable k_restrain equal 100

fix restraint all arclengthrestraint WLC_11 ${k_restrain} ${totLength}
fix restraint all arclengthrestraint WLC_11 100 ${totLength}
fix restraint all arclengthrestraint WLC_11 100 10
fix_modify restraint energy yes

comm_modify cutoff 100

compute internalsTemp internals temp
thermo_style custom step pe ke fnorm epair epair ebond eangle edihed etotal

fix stationary endpoints setforce 0 0 0
min_modify dmax 10 norm max line backtrack # backtrack is necessary because minimizing points of restraint energy are degenerate
minimize 0 0 100000 100000
Neighbor list info ...
  update: every = 1 steps, delay = 0 steps, check = yes
  max neighbors/atom: 2000, page size: 100000
  master list distance cutoff = 0
  ghost atom cutoff = 100
  binsize = 1000, bins = 1 1 1
  1 neighbor lists, perpetual/occasional/extra = 1 0 0
  (1) fix arclengthrestraint, perpetual
      attributes: half, newton on
      pair build: half/bin/newton
      stencil: half/bin/3d
      bin: standard
WARNING: No pairwise cutoff or binsize set. Atom sorting therefore disabled. (../atom.cpp:2442)
Per MPI rank memory allocation (min/avg/max) = 8.621 | 8.621 | 8.621 Mbytes
   Step         PotEng         KinEng         Fnorm          E_pair         E_pair         E_bond        E_angle        E_dihed         TotEng    
         0   1.9919256      0              1787.6226      0              0              0              1.7899362      0              1.9919256    
       201   1.6195003      0              0.79953443     0              0              0              1.61843        0              1.6195003    
Loop time of 0.00836602 on 1 procs for 201 steps with 11 atoms

95.7% CPU use with 1 MPI tasks x 1 OpenMP threads

Minimization stats:
  Stopping criterion = energy tolerance
  Energy initial, next-to-last, final = 
      1.99192559461765   1.61950027198049   1.61950027198049
  Force two-norm initial, final = 1787.6226 0.79953443
  Force max component initial, final = 1204.0505 0.55013987
  Final line search alpha, max atom move = 1.4901161e-08 8.1977229e-09
  Iterations, force evaluations = 201 3072

MPI task timing breakdown:
Section |  min time  |  avg time  |  max time  |%varavg| %total
---------------------------------------------------------------
Pair    | 0          | 0          | 0          |   0.0 |  0.00
Bond    | 0.0023025  | 0.0023025  | 0.0023025  |   0.0 | 27.52
Neigh   | 0.00061686 | 0.00061686 | 0.00061686 |   0.0 |  7.37
Comm    | 0.00048372 | 0.00048372 | 0.00048372 |   0.0 |  5.78
Output  | 0          | 0          | 0          |   0.0 |  0.00
Modify  | 0.0013284  | 0.0013284  | 0.0013284  |   0.0 | 15.88
Other   |            | 0.003635   |            |       | 43.44

Nlocal:             11 ave          11 max          11 min
Histogram: 1 0 0 0 0 0 0 0 0 0
Nghost:              0 ave           0 max           0 min
Histogram: 1 0 0 0 0 0 0 0 0 0
Neighs:              0 ave           0 max           0 min
Histogram: 1 0 0 0 0 0 0 0 0 0

Total # of neighbors = 0
Ave neighs/atom = 0
Ave special neighs/atom = 4.9090909
Neighbor list builds = 643
Dangerous builds = 333
unfix stationary

reset_timestep 0
timestep 1e-6

fix integrate internals nvt temp 310.0 310.0 $(10.0*dt)
fix integrate internals nvt temp 310.0 310.0 9.999999999999999124e-06
velocity internals create 310.0 ${seed} dist gaussian
velocity internals create 310.0 1 dist gaussian


compute endForce endpointOmega reduce ave fy # Obtain force on endpoint
variable computedForce equal c_endForce # fix print cannot directly print out computes
thermo_style custom step c_endForce c_integrate_temp temp ke

neighbor 100.0 bin
run 0
WARNING: Communication cutoff 100 is shorter than a bond length based estimate of 101.5. This may lead to errors. (../comm.cpp:730)
Per MPI rank memory allocation (min/avg/max) = 7.496 | 7.496 | 7.496 Mbytes
   Step       c_endForce   c_integrate_temp      Temp          KinEng    
         0  -0.15728849     310            248            7.3924089    
Loop time of 9.92e-07 on 1 procs for 0 steps with 11 atoms

100.8% CPU use with 1 MPI tasks x 1 OpenMP threads

MPI task timing breakdown:
Section |  min time  |  avg time  |  max time  |%varavg| %total
---------------------------------------------------------------
Pair    | 0          | 0          | 0          |   0.0 |  0.00
Bond    | 0          | 0          | 0          |   0.0 |  0.00
Neigh   | 0          | 0          | 0          |   0.0 |  0.00
Comm    | 0          | 0          | 0          |   0.0 |  0.00
Output  | 0          | 0          | 0          |   0.0 |  0.00
Modify  | 0          | 0          | 0          |   0.0 |  0.00
Other   |            | 9.92e-07   |            |       |100.00

Nlocal:             11 ave          11 max          11 min
Histogram: 1 0 0 0 0 0 0 0 0 0
Nghost:              0 ave           0 max           0 min
Histogram: 1 0 0 0 0 0 0 0 0 0
Neighs:              0 ave           0 max           0 min
Histogram: 1 0 0 0 0 0 0 0 0 0

Total # of neighbors = 0
Ave neighs/atom = 0
Ave special neighs/atom = 4.9090909
Neighbor list builds = 0
Dangerous builds = 0
velocity internals scale 310.0

variable sampFreq equal 10000000 # Sample force on endpoints every this-many timesteps.
variable numSamps equal 100 # Number of force samples to take.
variable numSteps equal "v_sampFreq * v_numSamps"
thermo ${sampFreq}
thermo 10000000

# Print out force on endpoint below
fix printForces all print ${sampFreq} "${computedForce}" file Out_Force_Extension/data/data_WLC_11_dispRatio_$(v_dispRatio:%.2f).txt screen no
fix printForces all print 10000000 "${computedForce}" file Out_Force_Extension/data/data_WLC_11_dispRatio_$(v_dispRatio:%.2f).txt screen no
fix printForces all print 10000000 "${computedForce}" file Out_Force_Extension/data/data_WLC_11_dispRatio_0.15.txt screen no

### Below is for validation purposes ###
compute blen all bond/local dist
compute end2end all reduce sum c_blen inputs local
variable totLen equal c_end2end

variable computedTemp equal c_integrate_temp
# variable sysTemp equal temp
# variable sysKE equal ke

variable validFile_end2end string "Out_Force_Extension/validation/end2end_WLC_11_Force_Extension_dispRatio_$(v_dispRatio:%.2f).txt"
Out_Force_Extension/validation/end2end_WLC_11_Force_Extension_dispRatio_0.15.txt
fix print_end2end all print ${sampFreq} "${totLen}" file ${validFile_end2end} screen no title "End-to-end arc length of WLC with 11 atoms"
fix print_end2end all print 10000000 "${totLen}" file ${validFile_end2end} screen no title "End-to-end arc length of WLC with 11 atoms"
fix print_end2end all print 10000000 "${totLen}" file Out_Force_Extension/validation/end2end_WLC_11_Force_Extension_dispRatio_0.15.txt screen no title "End-to-end arc length of WLC with 11 atoms"

variable validFile_internalsTemp string "Out_Force_Extension/validation/internalsTemp_WLC_11_Force_Extension_dispRatio_$(v_dispRatio:%.2f).txt"
Out_Force_Extension/validation/internalsTemp_WLC_11_Force_Extension_dispRatio_0.15.txt
fix print_internalsTemp all print ${sampFreq} "${computedTemp}" file ${validFile_internalsTemp} screen no title "Temperature (K) of internal atoms of WLC with 11 atoms"
fix print_internalsTemp all print 10000000 "${computedTemp}" file ${validFile_internalsTemp} screen no title "Temperature (K) of internal atoms of WLC with 11 atoms"
fix print_internalsTemp all print 10000000 "${computedTemp}" file Out_Force_Extension/validation/internalsTemp_WLC_11_Force_Extension_dispRatio_0.15.txt screen no title "Temperature (K) of internal atoms of WLC with 11 atoms"
### End of validation block ###


run ${numSteps}
run 1000000000
WARNING: Communication cutoff 100 is shorter than a bond length based estimate of 101.5. This may lead to errors. (../comm.cpp:730)
Per MPI rank memory allocation (min/avg/max) = 7.572 | 7.572 | 7.572 Mbytes
   Step       c_endForce   c_integrate_temp      Temp          KinEng    
         0  -0.15728849     310            248            7.3924089    
  10000000   0.39372758     337.07135      269.65708      8.0379654    
  20000000   0.57896796     314.25564      251.40451      7.493891     
  30000000   0.6134221      298.7427       238.99416      7.1239619    
  40000000  -0.3364274      262.06845      209.65476      6.2494101    
  50000000  -0.32988214     227.91464      182.33171      5.4349619    
  60000000  -0.021720739    306.17143      244.93715      7.3011111    
  70000000   1.2425008      188.39971      150.71977      4.49267      
  80000000   2.6379364      270.24845      216.19876      6.4444744    
  90000000   0.79505348     357.01868      285.61494      8.5136389    
 100000000   1.1758054      202.51933      162.01546      4.8293732    
 110000000   2.6108644      469.68909      375.75127      11.200432    
 120000000   0.96038508     420.71269      336.57015      10.032517    
 130000000   0.64014342     390.54634      312.43707      9.3131557    
 140000000   0.81969853     246.37404      197.09923      5.8751538    
 150000000   0.19501717     307.36556      245.89245      7.3295868    
 160000000   1.0759484      253.90947      203.12758      6.0548472    
 170000000   0.28276832     320.49373      256.39498      7.6426473    
 180000000   0.38288444     247.48157      197.98525      5.9015644    
 190000000   0.75064749     330.28006      264.22405      7.876017     
 200000000   0.79305474     410.8314       328.66512      9.7968829    
 210000000   1.4273222      341.13117      272.90494      8.1347778    
 220000000  -0.4341967      225.00552      180.00441      5.3655896    
 230000000  -0.87189598     413.04602      330.43681      9.8496938    
 240000000   0.29580182     216.30911      173.04729      5.158211     
 250000000  -0.65617532     252.15622      201.72498      6.0130384    
 260000000  -1.1295841      206.99848      165.59879      4.9361853    
 270000000  -1.2299379      351.66246      281.32997      8.3859119    
 280000000  -1.0207693      372.39308      297.91446      8.8802642    
 290000000  -0.69504021     374.2877       299.43016      8.9254443    
 300000000   2.1363102      188.45574      150.76459      4.4940061    
 310000000   1.4879046      288.03983      230.43186      6.8687362    
 320000000  -1.7081158      471.89251      377.51401      11.252975    
 330000000  -0.6300173      366.40933      293.12746      8.7375729    
 340000000  -0.20581098     320.40322      256.32258      7.6404891    
 350000000  -1.6146761      171.99073      137.59259      4.1013737    
 360000000   0.13821176     346.87532      277.50026      8.2717555    
 370000000   2.5286802      201.0817       160.86536      4.7950908    
 380000000   1.1267408      311.40007      249.12005      7.4257956    
 390000000   0.64475182     365.68751      292.55001      8.72036      
 400000000   2.0988445      198.08531      158.46825      4.7236375    
 410000000   2.2068418      421.84094      337.47275      10.059422    
 420000000   1.3231776      282.31977      225.85581      6.7323328    
 430000000  -0.10915876     238.44947      190.75957      5.6861806    
 440000000  -0.94147778     361.95433      289.56346      8.6313368    
 450000000  -0.13944574     246.00331      196.80264      5.866313     
 460000000  -0.10016791     160.15136      128.12109      3.8190463    
 470000000  -0.63904752     173.10371      138.48297      4.1279142    
 480000000  -0.85180587     168.46759      134.77408      4.0173592    
 490000000  -0.52219607     426.23452      340.98761      10.164193    
 500000000   0.78531831     370.28122      296.22498      8.8299039    
 510000000   0.91964702     333.41154      266.72923      7.9506917    
 520000000  -1.5127299      240.7861       192.62888      5.741901     
 530000000  -1.538288       279.06027      223.24822      6.6546053    
 540000000   2.0484381      309.75146      247.80117      7.3864822    
 550000000   0.76001276     171.55257      137.24205      4.0909249    
 560000000  -1.4028405      309.69337      247.75469      7.3850968    
 570000000  -0.63874555     161.48658      129.18927      3.8508866    
 580000000   1.7745436      192.38614      153.90891      4.5877322    
 590000000   1.5691783      214.14886      171.31909      5.1066967    
 600000000  -0.69925094     215.56118      172.44894      5.1403754    
 610000000  -3.0055619      295.95071      236.76057      7.0573829    
 620000000  -2.4148382      271.64654      217.31723      6.4778139    
 630000000  -0.83381293     272.13782      217.71026      6.4895293    
 640000000  -2.3051512      328.81787      263.0543       7.8411489    
 650000000  -3.1552673      327.35631      261.88505      7.8062959    
 660000000  -3.6973721      258.20419      206.56335      6.1572612    
 670000000  -2.56019        232.19059      185.75247      5.5369282    
 680000000  -1.8713143      213.62771      170.90217      5.094269     
 690000000  -2.5181894      435.71198      348.56959      10.390197    
 700000000  -0.57348016     242.78385      194.22708      5.7895402    
 710000000  -4.5025388      370.69108      296.55286      8.8396775    
 720000000  -0.59749017     368.74834      294.99867      8.7933501    
 730000000   2.3593172      205.48335      164.38668      4.9000547    
 740000000   0.47780613     223.30384      178.64307      5.3250106    
 750000000  -0.15052748     447.31849      357.85479      10.666972    
 760000000  -3.0574871      380.5462       304.43696      9.0746875    
 770000000  -4.2394772      198.98306      159.18644      4.7450455    
 780000000   1.8906341      458.85195      367.08156      10.942004    
 790000000   7.260946       424.84486      339.87589      10.131055    
 800000000   5.4135143      142.52568      114.02055      3.3987359    
 810000000   2.6061711      539.60827      431.68662      12.867758    
 820000000  -2.1386777      164.74623      131.79698      3.9286177    
 830000000   0.41318259     374.24099      299.39279      8.9243305    
 840000000   1.9129043      354.05416      283.24333      8.4429457    
 850000000  -0.58661603     243.63737      194.9099       5.8098938    
 860000000  -1.7278606      300.96764      240.77412      7.177019     
 870000000   1.5678093      263.30923      210.64738      6.2789984    
 880000000   2.9606092      376.50063      301.20051      8.9782149    
 890000000   0.87717442     340.64176      272.51341      8.1231071    
 900000000  -0.59120536     264.10762      211.2861       6.2980372    
 910000000   1.2896434      309.91528      247.93222      7.3903886    
 920000000   1.5348679      275.45244      220.36195      6.5685711    
 930000000  -0.4361248      396.7431       317.39448      9.4609266    
 940000000   0.60257416     370.09294      296.07435      8.8254141    
 950000000  -1.8197761      312.40885      249.92708      7.4498516    
 960000000  -1.0724853      224.25448      179.40358      5.34768      
 970000000  -0.94777359     331.08181      264.86544      7.8951358    
 980000000  -0.78839337     202.33896      161.87117      4.8250721    
 990000000   0.21308763     267.68494      214.14796      6.3833438    
1000000000  -1.9310726      375.24249      300.19399      8.9482126    
Loop time of 1678.58 on 1 procs for 1000000000 steps with 11 atoms

Performance: 0.051 ns/day, 466.273 hours/ns, 595740.567 timesteps/s, 6.553 Matom-step/s
100.0% CPU use with 1 MPI tasks x 1 OpenMP threads

MPI task timing breakdown:
Section |  min time  |  avg time  |  max time  |%varavg| %total
---------------------------------------------------------------
Pair    | 0          | 0          | 0          |   0.0 |  0.00
Bond    | 505.01     | 505.01     | 505.01     |   0.0 | 30.09
Neigh   | 0          | 0          | 0          |   0.0 |  0.00
Comm    | 80.69      | 80.69      | 80.69      |   0.0 |  4.81
Output  | 0.0019307  | 0.0019307  | 0.0019307  |   0.0 |  0.00
Modify  | 846.17     | 846.17     | 846.17     |   0.0 | 50.41
Other   |            | 246.7      |            |       | 14.70

Nlocal:             11 ave          11 max          11 min
Histogram: 1 0 0 0 0 0 0 0 0 0
Nghost:              0 ave           0 max           0 min
Histogram: 1 0 0 0 0 0 0 0 0 0
Neighs:              0 ave           0 max           0 min
Histogram: 1 0 0 0 0 0 0 0 0 0

Total # of neighbors = 0
Ave neighs/atom = 0
Ave special neighs/atom = 4.9090909
Neighbor list builds = 0
Dangerous builds = 0
Total wall time: 0:27:58
