
variable totLength equal 10
variable dispDist equal "v_totLength * v_dispRatio / 2"

variable seed equal 1
units real
boundary p p p

atom_style molecular

region main block -500 500 -500 500 -500 500

create_box 11 main bond/types 10 angle/types 9 extra/bond/per/atom 2 extra/angle/per/atom 3 extra/special/per/atom 6
Created orthogonal box = (-500 -500 -500) to (500 500 500)
  1 by 1 by 1 MPI processor grid

molecule WLC_11 Structures/Production/relaxed_WLC_11.txt
Read molecule template WLC_11:
# Relaxed Production Model for Worm-Like Chain
  1 molecules
  0 fragments
  11 atoms with max type 11
  10 bonds with max type 10
  9 angles with max type 9
  0 dihedrals with max type 0
  0 impropers with max type 0
bond_style harmonic
angle_style harmonic
dihedral_style none

create_atoms 0 single 0 0 0 mol WLC_11 ${seed} rotate 0 0 0 1
create_atoms 0 single 0 0 0 mol WLC_11 1 rotate 0 0 0 1
Created 11 atoms
  using lattice units in orthogonal box = (-500 -500 -500) to (500 500 500)
  create_atoms CPU = 0.001 seconds

read_data Structures/Coeffs/coeffs_WLC_11.data add merge
Reading data file ...
  orthogonal box = (-500 -500 -500) to (500 500 500)
  1 by 1 by 1 MPI processor grid
Finding 1-2 1-3 1-4 neighbors ...
  special bond factors lj:    0        0        0       
  special bond factors coul:  0        0        0       
     3 = max # of 1-2 neighbors
     6 = max # of 1-3 neighbors
    18 = max # of 1-4 neighbors
    13 = max # of special neighbors
  special bonds CPU = 0.000 seconds
  read_data CPU = 0.000 seconds
bond_coeff * 0 1

group internals type 2:10
9 atoms in group internals
group endpointAlpha type 1
1 atoms in group endpointAlpha
group endpointOmega type 11
1 atoms in group endpointOmega
group endpoints subtract all internals
2 atoms in group endpoints

displace_atoms endpointAlpha move 0 ${dispDist} 0 units box
displace_atoms endpointAlpha move 0 0.1 0 units box
Displacing atoms ...
displace_atoms endpointOmega move 0 -${dispDist} 0 units box
displace_atoms endpointOmega move 0 -0.1 0 units box
Displacing atoms ...

variable k_restrain equal 100

fix restraint all arclengthrestraint WLC_11 ${k_restrain} ${totLength}
fix restraint all arclengthrestraint WLC_11 100 ${totLength}
fix restraint all arclengthrestraint WLC_11 100 10
fix_modify restraint energy yes

comm_modify cutoff 100

compute internalsTemp internals temp
thermo_style custom step pe ke fnorm epair epair ebond eangle edihed etotal

fix stationary endpoints setforce 0 0 0
min_modify dmax 10 norm max line backtrack # backtrack is necessary because minimizing points of restraint energy are degenerate
minimize 0 0 100000 100000
Neighbor list info ...
  update: every = 1 steps, delay = 0 steps, check = yes
  max neighbors/atom: 2000, page size: 100000
  master list distance cutoff = 0
  ghost atom cutoff = 100
  binsize = 1000, bins = 1 1 1
  1 neighbor lists, perpetual/occasional/extra = 1 0 0
  (1) fix arclengthrestraint, perpetual
      attributes: half, newton on
      pair build: half/bin/newton
      stencil: half/bin/3d
      bin: standard
WARNING: No pairwise cutoff or binsize set. Atom sorting therefore disabled. (../atom.cpp:2442)
Per MPI rank memory allocation (min/avg/max) = 8.621 | 8.621 | 8.621 Mbytes
   Step         PotEng         KinEng         Fnorm          E_pair         E_pair         E_bond        E_angle        E_dihed         TotEng    
         0   1.8301961      0              61.814782      0              0              0              1.8104495      0              1.8301961    
        97   1.811615       0              0.68832531     0              0              0              1.8108016      0              1.811615     
Loop time of 0.00446826 on 1 procs for 97 steps with 11 atoms

100.0% CPU use with 1 MPI tasks x 1 OpenMP threads

Minimization stats:
  Stopping criterion = energy tolerance
  Energy initial, next-to-last, final = 
      1.83019607982709   1.81161495806623   1.81161495806623
  Force two-norm initial, final = 61.814782 0.68832531
  Force max component initial, final = 37.510333 0.40254143
  Final line search alpha, max atom move = 1.4901161e-08 5.9983347e-09
  Iterations, force evaluations = 97 1894

MPI task timing breakdown:
Section |  min time  |  avg time  |  max time  |%varavg| %total
---------------------------------------------------------------
Pair    | 0          | 0          | 0          |   0.0 |  0.00
Bond    | 0.0012542  | 0.0012542  | 0.0012542  |   0.0 | 28.07
Neigh   | 0.00028468 | 0.00028468 | 0.00028468 |   0.0 |  6.37
Comm    | 0.0002336  | 0.0002336  | 0.0002336  |   0.0 |  5.23
Output  | 0          | 0          | 0          |   0.0 |  0.00
Modify  | 0.00073011 | 0.00073011 | 0.00073011 |   0.0 | 16.34
Other   |            | 0.001966   |            |       | 43.99

Nlocal:             11 ave          11 max          11 min
Histogram: 1 0 0 0 0 0 0 0 0 0
Nghost:              0 ave           0 max           0 min
Histogram: 1 0 0 0 0 0 0 0 0 0
Neighs:              0 ave           0 max           0 min
Histogram: 1 0 0 0 0 0 0 0 0 0

Total # of neighbors = 0
Ave neighs/atom = 0
Ave special neighs/atom = 4.9090909
Neighbor list builds = 284
Dangerous builds = 154
unfix stationary

reset_timestep 0
timestep 1e-6

fix integrate internals nvt temp 310.0 310.0 $(10.0*dt)
fix integrate internals nvt temp 310.0 310.0 9.999999999999999124e-06
velocity internals create 310.0 ${seed} dist gaussian
velocity internals create 310.0 1 dist gaussian


compute endForce endpointOmega reduce ave fy # Obtain force on endpoint
variable computedForce equal c_endForce # fix print cannot directly print out computes
thermo_style custom step c_endForce c_integrate_temp temp ke

neighbor 100.0 bin
run 0
WARNING: Communication cutoff 100 is shorter than a bond length based estimate of 101.5. This may lead to errors. (../comm.cpp:730)
Per MPI rank memory allocation (min/avg/max) = 7.496 | 7.496 | 7.496 Mbytes
   Step       c_endForce   c_integrate_temp      Temp          KinEng    
         0  -0.17067361     310            248            7.3924089    
Loop time of 8.21e-07 on 1 procs for 0 steps with 11 atoms

121.8% CPU use with 1 MPI tasks x 1 OpenMP threads

MPI task timing breakdown:
Section |  min time  |  avg time  |  max time  |%varavg| %total
---------------------------------------------------------------
Pair    | 0          | 0          | 0          |   0.0 |  0.00
Bond    | 0          | 0          | 0          |   0.0 |  0.00
Neigh   | 0          | 0          | 0          |   0.0 |  0.00
Comm    | 0          | 0          | 0          |   0.0 |  0.00
Output  | 0          | 0          | 0          |   0.0 |  0.00
Modify  | 0          | 0          | 0          |   0.0 |  0.00
Other   |            | 8.21e-07   |            |       |100.00

Nlocal:             11 ave          11 max          11 min
Histogram: 1 0 0 0 0 0 0 0 0 0
Nghost:              0 ave           0 max           0 min
Histogram: 1 0 0 0 0 0 0 0 0 0
Neighs:              0 ave           0 max           0 min
Histogram: 1 0 0 0 0 0 0 0 0 0

Total # of neighbors = 0
Ave neighs/atom = 0
Ave special neighs/atom = 4.9090909
Neighbor list builds = 0
Dangerous builds = 0
velocity internals scale 310.0

variable sampFreq equal 10000000 # Sample force on endpoints every this-many timesteps.
variable numSamps equal 100 # Number of force samples to take.
variable numSteps equal "v_sampFreq * v_numSamps"
thermo ${sampFreq}
thermo 10000000

# Print out force on endpoint below
fix printForces all print ${sampFreq} "${computedForce}" file Out_Force_Extension/data/data_WLC_11_dispRatio_$(v_dispRatio:%.2f).txt screen no
fix printForces all print 10000000 "${computedForce}" file Out_Force_Extension/data/data_WLC_11_dispRatio_$(v_dispRatio:%.2f).txt screen no
fix printForces all print 10000000 "${computedForce}" file Out_Force_Extension/data/data_WLC_11_dispRatio_0.02.txt screen no

### Below is for validation purposes ###
compute blen all bond/local dist
compute end2end all reduce sum c_blen inputs local
variable totLen equal c_end2end

variable computedTemp equal c_integrate_temp
# variable sysTemp equal temp
# variable sysKE equal ke

variable validFile_end2end string "Out_Force_Extension/validation/end2end_WLC_11_Force_Extension_dispRatio_$(v_dispRatio:%.2f).txt"
Out_Force_Extension/validation/end2end_WLC_11_Force_Extension_dispRatio_0.02.txt
fix print_end2end all print ${sampFreq} "${totLen}" file ${validFile_end2end} screen no title "End-to-end arc length of WLC with 11 atoms"
fix print_end2end all print 10000000 "${totLen}" file ${validFile_end2end} screen no title "End-to-end arc length of WLC with 11 atoms"
fix print_end2end all print 10000000 "${totLen}" file Out_Force_Extension/validation/end2end_WLC_11_Force_Extension_dispRatio_0.02.txt screen no title "End-to-end arc length of WLC with 11 atoms"

variable validFile_internalsTemp string "Out_Force_Extension/validation/internalsTemp_WLC_11_Force_Extension_dispRatio_$(v_dispRatio:%.2f).txt"
Out_Force_Extension/validation/internalsTemp_WLC_11_Force_Extension_dispRatio_0.02.txt
fix print_internalsTemp all print ${sampFreq} "${computedTemp}" file ${validFile_internalsTemp} screen no title "Temperature (K) of internal atoms of WLC with 11 atoms"
fix print_internalsTemp all print 10000000 "${computedTemp}" file ${validFile_internalsTemp} screen no title "Temperature (K) of internal atoms of WLC with 11 atoms"
fix print_internalsTemp all print 10000000 "${computedTemp}" file Out_Force_Extension/validation/internalsTemp_WLC_11_Force_Extension_dispRatio_0.02.txt screen no title "Temperature (K) of internal atoms of WLC with 11 atoms"
### End of validation block ###


run ${numSteps}
run 1000000000
WARNING: Communication cutoff 100 is shorter than a bond length based estimate of 101.5. This may lead to errors. (../comm.cpp:730)
Per MPI rank memory allocation (min/avg/max) = 7.572 | 7.572 | 7.572 Mbytes
   Step       c_endForce   c_integrate_temp      Temp          KinEng    
         0  -0.17067361     310            248            7.3924089    
  10000000  -0.3646207      412.54424      330.03539      9.8377282    
  20000000  -0.36640513     274.21466      219.37173      6.5390544    
  30000000  -0.036788565    420.63526      336.50821      10.03067     
  40000000  -0.27891913     222.41769      177.93415      5.3038792    
  50000000  -0.26678374     305.03811      244.03049      7.2740854    
  60000000   0.54513307     281.07792      224.86234      6.7027192    
  70000000   1.2196573      324.33215      259.46572      7.7341803    
  80000000   2.134764       527.14622      421.71698      12.570582    
  90000000   0.340828       255.88422      204.70737      6.1019379    
 100000000   0.60314355     290.73374      232.58699      6.9329763    
 110000000   2.4249008      309.2593       247.40744      7.3747459    
 120000000   2.0970762      261.33677      209.06942      6.2319621    
 130000000   1.3868693      264.35566      211.48453      6.3039521    
 140000000  -0.82835124     255.9722       204.77776      6.104036     
 150000000  -0.63059847     157.97724      126.3818       3.7672013    
 160000000   1.4407385      243.36988      194.6959       5.803515     
 170000000   2.1437979      220.93056      176.74445      5.2684164    
 180000000   1.308003       514.18133      411.34506      12.261415    
 190000000   0.55896338     321.98046      257.58437      7.6781007    
 200000000  -0.1763548      284.22475      227.3798       6.7777599    
 210000000   0.43589487     192.32779      153.86223      4.5863409    
 220000000   1.0322765      318.98436      255.18748      7.6066542    
 230000000   0.58149816     234.86856      187.89485      5.6007886    
 240000000  -1.6633959      234.77437      187.8195       5.5985424    
 250000000  -0.23981748     241.64913      193.3193       5.7624812    
 260000000  -1.1363298      223.10079      178.48063      5.3201685    
 270000000  -1.8555854      348.47255      278.77804      8.3098439    
 280000000  -0.26581679     333.53154      266.82523      7.9535532    
 290000000   0.61919857     280.51596      224.41277      6.6893185    
 300000000   1.0213209      257.38011      205.90409      6.1376098    
 310000000   1.2104843      376.99695      301.59756      8.9900504    
 320000000  -2.8393158      348.39439      278.71551      8.30798      
 330000000   2.5647806      405.38682      324.30945      9.6670488    
 340000000  -2.0518633      263.67995      210.94396      6.2878387    
 350000000  -3.7698399      274.23679      219.38943      6.5395823    
 360000000   3.5261767      365.50232      292.40185      8.7159439    
 370000000   1.1654723      334.15764      267.32612      7.9684837    
 380000000  -0.58615934     305.60403      244.48322      7.2875805    
 390000000   0.72802436     440.92793      352.74234      10.514579    
 400000000   2.6462589      156.99006      125.59205      3.7436604    
 410000000   2.6687389      248.48308      198.78646      5.9254468    
 420000000   2.1049198      232.1279       185.70232      5.5354334    
 430000000   1.0933425      116.90553      93.524424      2.7877854    
 440000000   1.7967955      339.43571      271.54857      8.094347     
 450000000  -0.52869632     373.93471      299.14777      8.9170267    
 460000000  -2.2537195      552.32927      441.86341      13.171109    
 470000000   0.49896415     324.90809      259.92647      7.7479145    
 480000000   0.43735462     293.1073       234.48584      6.9895775    
 490000000  -0.96475245     312.9494       250.35952      7.4627417    
 500000000  -0.3190446      499.16158      399.32926      11.903247    
 510000000   0.68412733     284.35057      227.48045      6.7807602    
 520000000  -0.1969574      369.74235      295.79388      8.8170537    
 530000000  -0.97310181     288.387        230.7096       6.877015     
 540000000  -1.9458295      305.83293      244.66634      7.2930389    
 550000000  -1.8612119      301.8053       241.44424      7.1969941    
 560000000   0.8109354      258.69446      206.95557      6.1689525    
 570000000  -0.43363009     248.28295      198.62636      5.9206746    
 580000000  -2.172995       273.47082      218.77665      6.5213165    
 590000000  -0.20105612     318.20308      254.56247      7.5880236    
 600000000  -0.54779817     402.05082      321.64065      9.587497     
 610000000  -1.5839316      316.48441      253.18753      7.5470392    
 620000000  -1.5166588      206.85374      165.48299      4.9327337    
 630000000  -1.055438       310.34332      248.27465      7.4005958    
 640000000  -1.0347608      328.0062       262.40496      7.8217933    
 650000000  -2.2448448      258.02143      206.41715      6.1529031    
 660000000  -5.8251314      295.25409      236.20327      7.0407708    
 670000000  -3.0032007      330.69432      264.55546      7.8858957    
 680000000   1.2921962      271.88524      217.5082       6.4835061    
 690000000  -2.0651904      195.14316      156.11453      4.6534775    
 700000000  -2.6004312      353.65236      282.92189      8.4333642    
 710000000  -0.53545373     392.94902      314.35921      9.370451     
 720000000   1.3298097      319.82876      255.863        7.6267902    
 730000000  -2.0066326      209.83504      167.86803      5.0038272    
 740000000  -4.0499727      261.0285       208.8228       6.2246111    
 750000000   0.44564985     416.12821      332.90257      9.9231933    
 760000000   1.2994223      422.5601       338.04808      10.076571    
 770000000   3.0436862      204.51214      163.60972      4.8768948    
 780000000   7.1410215      373.80565      299.04452      8.913949     
 790000000   1.1395826      411.63203      329.30563      9.8159752    
 800000000   1.5951272      361.56733      289.25387      8.6221083    
 810000000  -1.68447        297.95195      238.36156      7.1051054    
 820000000  -1.8885562      187.53471      150.02777      4.4720428    
 830000000  -0.45054837     406.59097      325.27277      9.6957635    
 840000000   0.15109813     248.90357      199.12286      5.9354742    
 850000000  -2.7684084      163.06784      130.45427      3.8885941    
 860000000  -1.4521499      246.86451      197.4916       5.8868496    
 870000000   3.4797748      318.41124      254.72899      7.5929873    
 880000000   4.0946271      231.72631      185.38105      5.525857     
 890000000   1.3155         258.72889      206.98311      6.1697735    
 900000000  -0.80190404     199.61057      159.68845      4.7600095    
 910000000  -0.077521966    354.5297       283.62376      8.4542856    
 920000000   1.8195514      417.39078      333.91263      9.9533011    
 930000000   2.4114597      271.68051      217.34441      6.4786239    
 940000000   2.2505463      176.25482      141.00386      4.2030571    
 950000000   2.0219148      165.52891      132.42313      3.947282     
 960000000   1.4115662      176.68107      141.34486      4.2132218    
 970000000   1.2868331      440.04788      352.0383       10.493593    
 980000000   1.5604122      263.90867      211.12693      6.2932929    
 990000000  -0.79187849     265.26209      212.20967      6.3255672    
1000000000  -0.82409152     415.50847      332.40678      9.9084146    
Loop time of 1582.66 on 1 procs for 1000000000 steps with 11 atoms

Performance: 0.055 ns/day, 439.629 hours/ns, 631846.015 timesteps/s, 6.950 Matom-step/s
100.0% CPU use with 1 MPI tasks x 1 OpenMP threads

MPI task timing breakdown:
Section |  min time  |  avg time  |  max time  |%varavg| %total
---------------------------------------------------------------
Pair    | 0          | 0          | 0          |   0.0 |  0.00
Bond    | 512.3      | 512.3      | 512.3      |   0.0 | 32.37
Neigh   | 0          | 0          | 0          |   0.0 |  0.00
Comm    | 69.332     | 69.332     | 69.332     |   0.0 |  4.38
Output  | 0.0018643  | 0.0018643  | 0.0018643  |   0.0 |  0.00
Modify  | 784.52     | 784.52     | 784.52     |   0.0 | 49.57
Other   |            | 216.5      |            |       | 13.68

Nlocal:             11 ave          11 max          11 min
Histogram: 1 0 0 0 0 0 0 0 0 0
Nghost:              0 ave           0 max           0 min
Histogram: 1 0 0 0 0 0 0 0 0 0
Neighs:              0 ave           0 max           0 min
Histogram: 1 0 0 0 0 0 0 0 0 0

Total # of neighbors = 0
Ave neighs/atom = 0
Ave special neighs/atom = 4.9090909
Neighbor list builds = 0
Dangerous builds = 0
Total wall time: 0:26:22
