
variable totLength equal 10
variable dispDist equal "v_totLength * v_dispRatio / 2"

variable seed equal 1
units real
boundary p p p

atom_style molecular

region main block -500 500 -500 500 -500 500

create_box 41 main bond/types 40 angle/types 39 extra/bond/per/atom 2 extra/angle/per/atom 3 extra/special/per/atom 6
Created orthogonal box = (-500 -500 -500) to (500 500 500)
  1 by 1 by 1 MPI processor grid

molecule WLC_41 Structures/Production/relaxed_WLC_41.txt
Read molecule template WLC_41:
# Relaxed Production Model for Worm-Like Chain
  1 molecules
  0 fragments
  41 atoms with max type 41
  40 bonds with max type 40
  39 angles with max type 39
  0 dihedrals with max type 0
  0 impropers with max type 0
bond_style harmonic
angle_style harmonic
dihedral_style none

create_atoms 0 single 0 0 0 mol WLC_41 ${seed} rotate 0 0 0 1
create_atoms 0 single 0 0 0 mol WLC_41 1 rotate 0 0 0 1
Created 41 atoms
  using lattice units in orthogonal box = (-500 -500 -500) to (500 500 500)
  create_atoms CPU = 0.001 seconds

read_data Structures/Coeffs/coeffs_WLC_41.data add merge
Reading data file ...
  orthogonal box = (-500 -500 -500) to (500 500 500)
  1 by 1 by 1 MPI processor grid
Finding 1-2 1-3 1-4 neighbors ...
  special bond factors lj:    0        0        0       
  special bond factors coul:  0        0        0       
     3 = max # of 1-2 neighbors
     6 = max # of 1-3 neighbors
    18 = max # of 1-4 neighbors
    13 = max # of special neighbors
  special bonds CPU = 0.000 seconds
  read_data CPU = 0.013 seconds
bond_coeff * 0 0.25

group internals type 2:40
39 atoms in group internals
group endpointAlpha type 1
1 atoms in group endpointAlpha
group endpointOmega type 41
1 atoms in group endpointOmega
group endpoints subtract all internals
2 atoms in group endpoints

displace_atoms endpointAlpha move 0 ${dispDist} 0 units box
displace_atoms endpointAlpha move 0 1 0 units box
Displacing atoms ...
displace_atoms endpointOmega move 0 -${dispDist} 0 units box
displace_atoms endpointOmega move 0 -1 0 units box
Displacing atoms ...

variable k_restrain equal 400

fix restraint all arclengthrestraint WLC_41 ${k_restrain} ${totLength}
fix restraint all arclengthrestraint WLC_41 400 ${totLength}
fix restraint all arclengthrestraint WLC_41 400 10
fix_modify restraint energy yes

comm_modify cutoff 100

compute internalsTemp internals temp
thermo_style custom step pe ke fnorm epair epair ebond eangle edihed etotal

fix stationary endpoints setforce 0 0 0
min_modify dmax 10 norm max line backtrack # backtrack is necessary because minimizing points of restraint energy are degenerate
minimize 0 0 100000 100000
Neighbor list info ...
  update: every = 1 steps, delay = 0 steps, check = yes
  max neighbors/atom: 2000, page size: 100000
  master list distance cutoff = 0
  ghost atom cutoff = 100
  binsize = 1000, bins = 1 1 1
  1 neighbor lists, perpetual/occasional/extra = 1 0 0
  (1) fix arclengthrestraint, perpetual
      attributes: half, newton on
      pair build: half/bin/newton
      stencil: half/bin/3d
      bin: standard
WARNING: No pairwise cutoff or binsize set. Atom sorting therefore disabled. (../atom.cpp:2442)
Per MPI rank memory allocation (min/avg/max) = 8.622 | 8.622 | 8.622 Mbytes
   Step         PotEng         KinEng         Fnorm          E_pair         E_pair         E_bond        E_angle        E_dihed         TotEng    
         0   177.35471      0              2050587.5      0              0              0              114.74696      0              177.35471    
        15   177.05979      0              943.37585      0              0              0              114.4559       0              177.05979    
Loop time of 0.00332218 on 1 procs for 15 steps with 41 atoms

100.0% CPU use with 1 MPI tasks x 1 OpenMP threads

Minimization stats:
  Stopping criterion = linesearch alpha is zero
  Energy initial, next-to-last, final = 
      177.354708349115   177.059794488671   177.059794488671
  Force two-norm initial, final = 2050587.5 943.37585
  Force max component initial, final = 1436896.4 566.48878
  Final line search alpha, max atom move = 8.0274733e-15 4.5474735e-12
  Iterations, force evaluations = 15 491

MPI task timing breakdown:
Section |  min time  |  avg time  |  max time  |%varavg| %total
---------------------------------------------------------------
Pair    | 0          | 0          | 0          |   0.0 |  0.00
Bond    | 0.0012241  | 0.0012241  | 0.0012241  |   0.0 | 36.85
Neigh   | 0.00032168 | 0.00032168 | 0.00032168 |   0.0 |  9.68
Comm    | 8.9678e-05 | 8.9678e-05 | 8.9678e-05 |   0.0 |  2.70
Output  | 0          | 0          | 0          |   0.0 |  0.00
Modify  | 0.00046831 | 0.00046831 | 0.00046831 |   0.0 | 14.10
Other   |            | 0.001218   |            |       | 36.68

Nlocal:             41 ave          41 max          41 min
Histogram: 1 0 0 0 0 0 0 0 0 0
Nghost:              0 ave           0 max           0 min
Histogram: 1 0 0 0 0 0 0 0 0 0
Neighs:              0 ave           0 max           0 min
Histogram: 1 0 0 0 0 0 0 0 0 0

Total # of neighbors = 0
Ave neighs/atom = 0
Ave special neighs/atom = 5.7073171
Neighbor list builds = 75
Dangerous builds = 46
unfix stationary

reset_timestep 0
timestep 1e-6

fix integrate internals nvt temp 310.0 310.0 $(10.0*dt)
fix integrate internals nvt temp 310.0 310.0 9.999999999999999124e-06
velocity internals create 310.0 ${seed} dist gaussian
velocity internals create 310.0 1 dist gaussian


compute endForce endpointOmega reduce ave fy # Obtain force on endpoint
variable computedForce equal c_endForce # fix print cannot directly print out computes
thermo_style custom step c_endForce c_integrate_temp temp ke

neighbor 100.0 bin
run 0
WARNING: Communication cutoff 100 is shorter than a bond length based estimate of 100.375. This may lead to errors. (../comm.cpp:730)
Per MPI rank memory allocation (min/avg/max) = 7.497 | 7.497 | 7.497 Mbytes
   Step       c_endForce   c_integrate_temp      Temp          KinEng    
         0   0.56668946     310            294.5          35.113942    
Loop time of 1.172e-06 on 1 procs for 0 steps with 41 atoms

0.0% CPU use with 1 MPI tasks x 1 OpenMP threads

MPI task timing breakdown:
Section |  min time  |  avg time  |  max time  |%varavg| %total
---------------------------------------------------------------
Pair    | 0          | 0          | 0          |   0.0 |  0.00
Bond    | 0          | 0          | 0          |   0.0 |  0.00
Neigh   | 0          | 0          | 0          |   0.0 |  0.00
Comm    | 0          | 0          | 0          |   0.0 |  0.00
Output  | 0          | 0          | 0          |   0.0 |  0.00
Modify  | 0          | 0          | 0          |   0.0 |  0.00
Other   |            | 1.172e-06  |            |       |100.00

Nlocal:             41 ave          41 max          41 min
Histogram: 1 0 0 0 0 0 0 0 0 0
Nghost:              0 ave           0 max           0 min
Histogram: 1 0 0 0 0 0 0 0 0 0
Neighs:              0 ave           0 max           0 min
Histogram: 1 0 0 0 0 0 0 0 0 0

Total # of neighbors = 0
Ave neighs/atom = 0
Ave special neighs/atom = 5.7073171
Neighbor list builds = 0
Dangerous builds = 0
velocity internals scale 310.0

variable sampFreq equal 10000000 # Sample force on endpoints every this-many timesteps.
variable numSamps equal 100 # Number of force samples to take.
variable numSteps equal "v_sampFreq * v_numSamps"
thermo ${sampFreq}
thermo 10000000

# Print out force on endpoint below
fix printForces all print ${sampFreq} "${computedForce}" file Out_Force_Extension/data/data_WLC_41_dispRatio_$(v_dispRatio:%.2f).txt screen no
fix printForces all print 10000000 "${computedForce}" file Out_Force_Extension/data/data_WLC_41_dispRatio_$(v_dispRatio:%.2f).txt screen no
fix printForces all print 10000000 "${computedForce}" file Out_Force_Extension/data/data_WLC_41_dispRatio_0.20.txt screen no

### Below is for validation purposes ###
compute blen all bond/local dist
compute end2end all reduce sum c_blen inputs local
variable totLen equal c_end2end

variable computedTemp equal c_integrate_temp
# variable sysTemp equal temp
# variable sysKE equal ke

variable validFile_end2end string "Out_Force_Extension/validation/end2end_WLC_41_Force_Extension_dispRatio_$(v_dispRatio:%.2f).txt"
Out_Force_Extension/validation/end2end_WLC_41_Force_Extension_dispRatio_0.20.txt
fix print_end2end all print ${sampFreq} "${totLen}" file ${validFile_end2end} screen no title "End-to-end arc length of WLC with 41 atoms"
fix print_end2end all print 10000000 "${totLen}" file ${validFile_end2end} screen no title "End-to-end arc length of WLC with 41 atoms"
fix print_end2end all print 10000000 "${totLen}" file Out_Force_Extension/validation/end2end_WLC_41_Force_Extension_dispRatio_0.20.txt screen no title "End-to-end arc length of WLC with 41 atoms"

variable validFile_internalsTemp string "Out_Force_Extension/validation/internalsTemp_WLC_41_Force_Extension_dispRatio_$(v_dispRatio:%.2f).txt"
Out_Force_Extension/validation/internalsTemp_WLC_41_Force_Extension_dispRatio_0.20.txt
fix print_internalsTemp all print ${sampFreq} "${computedTemp}" file ${validFile_internalsTemp} screen no title "Temperature (K) of internal atoms of WLC with 41 atoms"
fix print_internalsTemp all print 10000000 "${computedTemp}" file ${validFile_internalsTemp} screen no title "Temperature (K) of internal atoms of WLC with 41 atoms"
fix print_internalsTemp all print 10000000 "${computedTemp}" file Out_Force_Extension/validation/internalsTemp_WLC_41_Force_Extension_dispRatio_0.20.txt screen no title "Temperature (K) of internal atoms of WLC with 41 atoms"
### End of validation block ###


run ${numSteps}
run 1000000000
WARNING: Communication cutoff 100 is shorter than a bond length based estimate of 100.375. This may lead to errors. (../comm.cpp:730)
Per MPI rank memory allocation (min/avg/max) = 7.573 | 7.573 | 7.573 Mbytes
   Step       c_endForce   c_integrate_temp      Temp          KinEng    
         0   0.56668946     310            294.5          35.113942    
  10000000   17.791667      296.43867      281.61674      33.57784     
  20000000  -7.8528716      378.15108      359.24353      42.833468    
  30000000   0.74471877     251.58859      239.00916      28.497636    
  40000000   7.0644875      289.9261       275.4298       32.840156    
  50000000   2.0024193      332.55689      315.92905      37.668979    
  60000000   1.500781       305.337        290.07015      34.585761    
  70000000   2.3420384      255.02292      242.27177      28.886645    
  80000000   6.4806408      310.97143      295.42286      35.223977    
  90000000   4.0506977      344.51618      327.29038      39.023618    
 100000000  -9.6483661      329.87098      313.37743      37.364744    
 110000000   10.851923      315.89637      300.10155      35.781829    
 120000000   10.43676       274.71105      260.9755       31.116736    
 130000000  -6.678139       318.41324      302.49258      36.066916    
 140000000   11.547357      317.03404      301.18234      35.910694    
 150000000   3.1667608      331.65974      315.07676      37.567358    
 160000000   1.0491291      349.07986      331.62587      39.540549    
 170000000  -12.769394      273.37059      259.70206      30.9649      
 180000000   24.48608       316.35814      300.54023      35.834134    
 190000000   0.28061696     345.22215      327.96104      39.103582    
 200000000   17.348142      329.37018      312.90167      37.308018    
 210000000  -24.718028      332.48005      315.85605      37.660276    
 220000000  -4.2509956      244.06454      231.86132      27.645382    
 230000000   4.2990325      258.99607      246.04626      29.336687    
 240000000   4.4239672      365.64094      347.35889      41.416435    
 250000000   3.5557821      348.17706      330.7682       39.438287    
 260000000  -4.6820659      269.44184      255.96975      30.519888    
 270000000   9.8047937      354.60095      336.8709       40.165926    
 280000000  -7.3833488      295.41106      280.64051      33.461442    
 290000000   0.74193201     275.10214      261.34704      31.161035    
 300000000   2.8725811      266.62021      253.2892       30.200279    
 310000000   0.22244399     333.20391      316.54371      37.742267    
 320000000  -1.5473863      311.41745      295.84657      35.274498    
 330000000  -1.7262109      292.23348      277.62181      33.101515    
 340000000  -0.70123976     312.89299      297.24834      35.441634    
 350000000  -5.0843892      287.00892      272.65848      32.509725    
 360000000  -0.41752439     340.96951      323.92104      38.621883    
 370000000  -0.84480858     319.91114      303.91558      36.236585    
 380000000   9.0165415      218.9897       208.04022      24.805135    
 390000000  -20.274663      278.67194      264.73835      31.565389    
 400000000  -4.428475       313.88448      298.19026      35.55394     
 410000000   7.1208814      281.19714      267.13728      31.85142     
 420000000  -6.5712713      261.06757      248.01419      29.571328    
 430000000   1.1827882      364.5561       346.32829      41.293554    
 440000000  -3.5164635      248.28039      235.86637      28.122914    
 450000000  -4.9923963      403.92781      383.73142      45.753219    
 460000000   8.8542903      283.16475      269.00651      32.074292    
 470000000   13.246711      329.40576      312.93547      37.312048    
 480000000   4.6428031      367.00591      348.65562      41.571047    
 490000000  -31.371311      278.11968      264.2137       31.502834    
 500000000   1.4669053      327.65159      311.26901      37.113352    
 510000000  -55.467865      363.7359       345.5491       41.20065     
 520000000  -12.6911        282.74551      268.60824      32.026805    
 530000000   2.8071798      261.64302      248.56087      29.636509    
 540000000  -2.1276517      319.23368      303.27199      36.159848    
 550000000  -16.172349      288.78261      274.34348      32.710632    
 560000000   5.5029008      358.42757      340.50619      40.599371    
 570000000  -0.58939462     368.12769      349.72131      41.698111    
 580000000   1.7099194      270.95959      257.41161      30.691804    
 590000000  -2.9473936      281.17189      267.1133       31.84856     
 600000000   2.4246751      301.68869      286.60426      34.172514    
 610000000  -1.620563       315.04576      299.29347      35.68548     
 620000000  -18.020271      341.47759      324.40371      38.679434    
 630000000   9.210602       269.62279      256.14165      30.540385    
 640000000   7.2493482      259.00497      246.05472      29.337695    
 650000000   3.1614403      267.97632      254.5775       30.353887    
 660000000  -6.4473984      274.04957      260.34709      31.041809    
 670000000   10.717986      429.11403      407.65833      48.606081    
 680000000   2.0494849      289.30039      274.83537      32.769281    
 690000000   4.9586153      297.92258      283.02645      33.745923    
 700000000  -5.1418014      295.51481      280.73907      33.473193    
 710000000   1.6422096      317.19016      301.33065      35.928377    
 720000000   11.790677      360.15448      342.14676      40.79498     
 730000000  -1.6337268      299.50618      284.53087      33.925299    
 740000000   11.602275      301.2833       286.21914      34.126595    
 750000000  -4.7435932      382.35684      363.239        43.309859    
 760000000  -2.362156       297.38112      282.51207      33.684592    
 770000000  -11.369876      269.39279      255.92315      30.514332    
 780000000   5.3163914      293.3304       278.66388      33.225764    
 790000000   1.9870882      290.51744      275.99157      32.907138    
 800000000   4.2883059      340.23047      323.21895      38.538171    
 810000000   7.4649895      304.49254      289.26791      34.490108    
 820000000  -11.311481      405.2364       384.97458      45.901444    
 830000000  -87.857652      295.00037      280.25035      33.414922    
 840000000  -1.8322183      266.9327       253.58607      30.235676    
 850000000   5.4904272      265.46957      252.19609      30.069945    
 860000000   2.2249578      263.61307      250.43241      29.859658    
 870000000   0.45669101     291.26927      276.70581      32.992298    
 880000000   82.79324       396.78914      376.94968      44.944616    
 890000000   11.614276      257.06748      244.21411      29.118235    
 900000000   21.847096      293.50261      278.82748      33.24527     
 910000000   18.74964       346.25108      328.93852      39.22013     
 920000000  -47.967141      350.94401      333.39681      39.751703    
 930000000  -10.999595      355.16987      337.41138      40.230369    
 940000000  -8.4577616      379.67766      360.69378      43.006386    
 950000000  -8.5095875      325.5964       309.31658      36.880558    
 960000000   5.0423624      324.20255      307.99242      36.722676    
 970000000  -1.271847       269.40913      255.93868      30.516183    
 980000000   23.804524      358.64445      340.71223      40.623938    
 990000000  -8.3445387      272.32803      258.71162      30.846808    
1000000000   3.1972646      302.7879       287.64851      34.297023    
Loop time of 4110.76 on 1 procs for 1000000000 steps with 41 atoms

Performance: 0.021 ns/day, 1141.877 hours/ns, 243264.128 timesteps/s, 9.974 Matom-step/s
100.0% CPU use with 1 MPI tasks x 1 OpenMP threads

MPI task timing breakdown:
Section |  min time  |  avg time  |  max time  |%varavg| %total
---------------------------------------------------------------
Pair    | 0          | 0          | 0          |   0.0 |  0.00
Bond    | 1910.1     | 1910.1     | 1910.1     |   0.0 | 46.47
Neigh   | 0          | 0          | 0          |   0.0 |  0.00
Comm    | 79.941     | 79.941     | 79.941     |   0.0 |  1.94
Output  | 0.0039577  | 0.0039577  | 0.0039577  |   0.0 |  0.00
Modify  | 1751.4     | 1751.4     | 1751.4     |   0.0 | 42.61
Other   |            | 369.3      |            |       |  8.98

Nlocal:             41 ave          41 max          41 min
Histogram: 1 0 0 0 0 0 0 0 0 0
Nghost:              0 ave           0 max           0 min
Histogram: 1 0 0 0 0 0 0 0 0 0
Neighs:              0 ave           0 max           0 min
Histogram: 1 0 0 0 0 0 0 0 0 0

Total # of neighbors = 0
Ave neighs/atom = 0
Ave special neighs/atom = 5.7073171
Neighbor list builds = 0
Dangerous builds = 0
Total wall time: 1:08:30
