
variable totLength equal 10
variable dispDist equal "v_totLength * v_dispRatio / 2"

variable seed equal 1
units real
boundary p p p

atom_style molecular

region main block -500 500 -500 500 -500 500

create_box 41 main bond/types 40 angle/types 39 extra/bond/per/atom 2 extra/angle/per/atom 3 extra/special/per/atom 6
Created orthogonal box = (-500 -500 -500) to (500 500 500)
  1 by 1 by 1 MPI processor grid

molecule WLC_41 Structures/Production/relaxed_WLC_41.txt
Read molecule template WLC_41:
# Relaxed Production Model for Worm-Like Chain
  1 molecules
  0 fragments
  41 atoms with max type 41
  40 bonds with max type 40
  39 angles with max type 39
  0 dihedrals with max type 0
  0 impropers with max type 0
bond_style harmonic
angle_style harmonic
dihedral_style none

create_atoms 0 single 0 0 0 mol WLC_41 ${seed} rotate 0 0 0 1
create_atoms 0 single 0 0 0 mol WLC_41 1 rotate 0 0 0 1
Created 41 atoms
  using lattice units in orthogonal box = (-500 -500 -500) to (500 500 500)
  create_atoms CPU = 0.002 seconds

read_data Structures/Coeffs/coeffs_WLC_41.data add merge
Reading data file ...
  orthogonal box = (-500 -500 -500) to (500 500 500)
  1 by 1 by 1 MPI processor grid
Finding 1-2 1-3 1-4 neighbors ...
  special bond factors lj:    0        0        0       
  special bond factors coul:  0        0        0       
     3 = max # of 1-2 neighbors
     6 = max # of 1-3 neighbors
    18 = max # of 1-4 neighbors
    13 = max # of special neighbors
  special bonds CPU = 0.000 seconds
  read_data CPU = 0.012 seconds
bond_coeff * 0 0.25

group internals type 2:40
39 atoms in group internals
group endpointAlpha type 1
1 atoms in group endpointAlpha
group endpointOmega type 41
1 atoms in group endpointOmega
group endpoints subtract all internals
2 atoms in group endpoints

displace_atoms endpointAlpha move 0 ${dispDist} 0 units box
displace_atoms endpointAlpha move 0 1.5 0 units box
Displacing atoms ...
displace_atoms endpointOmega move 0 -${dispDist} 0 units box
displace_atoms endpointOmega move 0 -1.5 0 units box
Displacing atoms ...

variable k_restrain equal 400

fix restraint all arclengthrestraint WLC_41 ${k_restrain} ${totLength}
fix restraint all arclengthrestraint WLC_41 400 ${totLength}
fix restraint all arclengthrestraint WLC_41 400 10
fix_modify restraint energy yes

comm_modify cutoff 100

compute internalsTemp internals temp
thermo_style custom step pe ke fnorm epair epair ebond eangle edihed etotal

fix stationary endpoints setforce 0 0 0
min_modify dmax 10 norm max line backtrack # backtrack is necessary because minimizing points of restraint energy are degenerate
minimize 0 0 100000 100000
Neighbor list info ...
  update: every = 1 steps, delay = 0 steps, check = yes
  max neighbors/atom: 2000, page size: 100000
  master list distance cutoff = 0
  ghost atom cutoff = 100
  binsize = 1000, bins = 1 1 1
  1 neighbor lists, perpetual/occasional/extra = 1 0 0
  (1) fix arclengthrestraint, perpetual
      attributes: half, newton on
      pair build: half/bin/newton
      stencil: half/bin/3d
      bin: standard
WARNING: No pairwise cutoff or binsize set. Atom sorting therefore disabled. (../atom.cpp:2442)
Per MPI rank memory allocation (min/avg/max) = 8.622 | 8.622 | 8.622 Mbytes
   Step         PotEng         KinEng         Fnorm          E_pair         E_pair         E_bond        E_angle        E_dihed         TotEng    
         0   286.66219      0              2050594.3      0              0              0              114.96021      0              286.66219    
       139   78.707457      0              408.03364      0              0              0              76.262795      0              78.707457    
Loop time of 0.02052 on 1 procs for 139 steps with 41 atoms

98.6% CPU use with 1 MPI tasks x 1 OpenMP threads

Minimization stats:
  Stopping criterion = energy tolerance
  Energy initial, next-to-last, final = 
      286.662193104848   78.7074565355005   78.7074565355005
  Force two-norm initial, final = 2050594.3 408.03364
  Force max component initial, final = 1436931.4 238.1186
  Final line search alpha, max atom move = 3.819503e-14 9.094947e-12
  Iterations, force evaluations = 139 2894

MPI task timing breakdown:
Section |  min time  |  avg time  |  max time  |%varavg| %total
---------------------------------------------------------------
Pair    | 0          | 0          | 0          |   0.0 |  0.00
Bond    | 0.0071962  | 0.0071962  | 0.0071962  |   0.0 | 35.07
Neigh   | 0.0027195  | 0.0027195  | 0.0027195  |   0.0 | 13.25
Comm    | 0.00061367 | 0.00061367 | 0.00061367 |   0.0 |  2.99
Output  | 0          | 0          | 0          |   0.0 |  0.00
Modify  | 0.0028161  | 0.0028161  | 0.0028161  |   0.0 | 13.72
Other   |            | 0.007175   |            |       | 34.96

Nlocal:             41 ave          41 max          41 min
Histogram: 1 0 0 0 0 0 0 0 0 0
Nghost:              0 ave           0 max           0 min
Histogram: 1 0 0 0 0 0 0 0 0 0
Neighs:              0 ave           0 max           0 min
Histogram: 1 0 0 0 0 0 0 0 0 0

Total # of neighbors = 0
Ave neighs/atom = 0
Ave special neighs/atom = 5.7073171
Neighbor list builds = 695
Dangerous builds = 419
unfix stationary

reset_timestep 0
timestep 1e-6

fix integrate internals nvt temp 310.0 310.0 $(10.0*dt)
fix integrate internals nvt temp 310.0 310.0 9.999999999999999124e-06
velocity internals create 310.0 ${seed} dist gaussian
velocity internals create 310.0 1 dist gaussian


compute endForce endpointOmega reduce ave fy # Obtain force on endpoint
variable computedForce equal c_endForce # fix print cannot directly print out computes
thermo_style custom step c_endForce c_integrate_temp temp ke

neighbor 100.0 bin
run 0
WARNING: Communication cutoff 100 is shorter than a bond length based estimate of 100.375. This may lead to errors. (../comm.cpp:730)
Per MPI rank memory allocation (min/avg/max) = 7.497 | 7.497 | 7.497 Mbytes
   Step       c_endForce   c_integrate_temp      Temp          KinEng    
         0   0.10094226     310            294.5          35.113942    
Loop time of 9.71e-07 on 1 procs for 0 steps with 41 atoms

0.0% CPU use with 1 MPI tasks x 1 OpenMP threads

MPI task timing breakdown:
Section |  min time  |  avg time  |  max time  |%varavg| %total
---------------------------------------------------------------
Pair    | 0          | 0          | 0          |   0.0 |  0.00
Bond    | 0          | 0          | 0          |   0.0 |  0.00
Neigh   | 0          | 0          | 0          |   0.0 |  0.00
Comm    | 0          | 0          | 0          |   0.0 |  0.00
Output  | 0          | 0          | 0          |   0.0 |  0.00
Modify  | 0          | 0          | 0          |   0.0 |  0.00
Other   |            | 9.71e-07   |            |       |100.00

Nlocal:             41 ave          41 max          41 min
Histogram: 1 0 0 0 0 0 0 0 0 0
Nghost:              0 ave           0 max           0 min
Histogram: 1 0 0 0 0 0 0 0 0 0
Neighs:              0 ave           0 max           0 min
Histogram: 1 0 0 0 0 0 0 0 0 0

Total # of neighbors = 0
Ave neighs/atom = 0
Ave special neighs/atom = 5.7073171
Neighbor list builds = 0
Dangerous builds = 0
velocity internals scale 310.0

variable sampFreq equal 10000000 # Sample force on endpoints every this-many timesteps.
variable numSamps equal 100 # Number of force samples to take.
variable numSteps equal "v_sampFreq * v_numSamps"
thermo ${sampFreq}
thermo 10000000

# Print out force on endpoint below
fix printForces all print ${sampFreq} "${computedForce}" file Out_Force_Extension/data/data_WLC_41_dispRatio_$(v_dispRatio:%.2f).txt screen no
fix printForces all print 10000000 "${computedForce}" file Out_Force_Extension/data/data_WLC_41_dispRatio_$(v_dispRatio:%.2f).txt screen no
fix printForces all print 10000000 "${computedForce}" file Out_Force_Extension/data/data_WLC_41_dispRatio_0.30.txt screen no

### Below is for validation purposes ###
compute blen all bond/local dist
compute end2end all reduce sum c_blen inputs local
variable totLen equal c_end2end

variable computedTemp equal c_integrate_temp
# variable sysTemp equal temp
# variable sysKE equal ke

variable validFile_end2end string "Out_Force_Extension/validation/end2end_WLC_41_Force_Extension_dispRatio_$(v_dispRatio:%.2f).txt"
Out_Force_Extension/validation/end2end_WLC_41_Force_Extension_dispRatio_0.30.txt
fix print_end2end all print ${sampFreq} "${totLen}" file ${validFile_end2end} screen no title "End-to-end arc length of WLC with 41 atoms"
fix print_end2end all print 10000000 "${totLen}" file ${validFile_end2end} screen no title "End-to-end arc length of WLC with 41 atoms"
fix print_end2end all print 10000000 "${totLen}" file Out_Force_Extension/validation/end2end_WLC_41_Force_Extension_dispRatio_0.30.txt screen no title "End-to-end arc length of WLC with 41 atoms"

variable validFile_internalsTemp string "Out_Force_Extension/validation/internalsTemp_WLC_41_Force_Extension_dispRatio_$(v_dispRatio:%.2f).txt"
Out_Force_Extension/validation/internalsTemp_WLC_41_Force_Extension_dispRatio_0.30.txt
fix print_internalsTemp all print ${sampFreq} "${computedTemp}" file ${validFile_internalsTemp} screen no title "Temperature (K) of internal atoms of WLC with 41 atoms"
fix print_internalsTemp all print 10000000 "${computedTemp}" file ${validFile_internalsTemp} screen no title "Temperature (K) of internal atoms of WLC with 41 atoms"
fix print_internalsTemp all print 10000000 "${computedTemp}" file Out_Force_Extension/validation/internalsTemp_WLC_41_Force_Extension_dispRatio_0.30.txt screen no title "Temperature (K) of internal atoms of WLC with 41 atoms"
### End of validation block ###


run ${numSteps}
run 1000000000
WARNING: Communication cutoff 100 is shorter than a bond length based estimate of 100.375. This may lead to errors. (../comm.cpp:730)
Per MPI rank memory allocation (min/avg/max) = 7.573 | 7.573 | 7.573 Mbytes
   Step       c_endForce   c_integrate_temp      Temp          KinEng    
         0   0.10094226     310            294.5          35.113942    
  10000000   5.4772607      317.68611      301.8018       35.984554    
  20000000   3.6768739      250.63953      238.10755      28.390135    
  30000000   9.2364969      294.41982      279.69883      33.349163    
  40000000   1.9651667      299.71502      284.72927      33.948955    
  50000000   5.9597075      430.77914      409.24018      48.794689    
  60000000   8.6049377      324.37733      308.15847      36.742474    
  70000000  -20.716542      321.0512       304.99864      36.36572     
  80000000   15.610074      344.94368      327.69649      39.07204     
  90000000  -23.523506      317.54086      301.66381      35.968101    
 100000000  -1.2627056      305.03077      289.77923      34.551074    
 110000000   4.7946643      341.89993      324.80494      38.727273    
 120000000  -0.97295962     250.10093      237.59588      28.329127    
 130000000   7.8906962      283.62152      269.44044      32.126031    
 140000000   4.2655523      323.30974      307.14426      36.621548    
 150000000  -3.5892174      286.54447      272.21725      32.457116    
 160000000  -6.8664281      272.33827      258.72135      30.847968    
 170000000  -19.607582      357.7199       339.83391      40.519213    
 180000000   1.2129759      260.82128      247.78022      29.54343     
 190000000  -11.815132      273.83981      260.14782      31.01805     
 200000000   21.501437      337.45899      320.58604      38.224244    
 210000000  -95.877024      346.76767      329.42928      39.278645    
 220000000   4.8655853      365.28519      347.02093      41.376139    
 230000000  -20.259785      358.82341      340.88224      40.644209    
 240000000  -18.254486      310.209        294.69855      35.137616    
 250000000  -36.745127      420.02753      399.02616      47.576847    
 260000000   2.9268454      260.15501      247.14725      29.467961    
 270000000   7.3104069      274.55256      260.82494      31.098784    
 280000000  -2.3073993      291.97369      277.37501      33.072088    
 290000000  -11.333522      285.91461      271.61888      32.385772    
 300000000   10.980959      303.32967      288.16319      34.358389    
 310000000   0.010734404    282.2216       268.11052      31.967461    
 320000000  -0.90347623     300.00636      285.00604      33.981954    
 330000000  -6.1382201      378.17039      359.26187      42.835656    
 340000000  -11.786018      304.72137      289.4853       34.516028    
 350000000   19.188119      407.07344      386.71977      46.109527    
 360000000   0.38604042     265.17971      251.92072      30.037113    
 370000000  -39.494997      267.02941      253.67794      30.24663     
 380000000  -8.8346649      352.55167      334.92409      39.933804    
 390000000   9.502214       264.91628      251.67047      30.007275    
 400000000   15.306564      327.00045      310.65042      37.039596    
 410000000   1.9381481      349.37751      331.90864      39.574264    
 420000000   1.4238937      279.83516      265.8434       31.697148    
 430000000   14.320961      259.63488      246.65314      29.409046    
 440000000   11.189314      313.72719      298.04083      35.536124    
 450000000   8.5160846      349.86027      332.36725      39.628946    
 460000000   10.979079      365.47852      347.20459      41.398038    
 470000000   6.3560266      329.69376      313.20907      37.34467     
 480000000   4.844773       307.88734      292.49297      34.87464     
 490000000   8.2419461      274.82851      261.08709      31.13004     
 500000000   1.9881915      236.40478      224.58454      26.777754    
 510000000  -6.8349389      322.64083      306.50879      36.545779    
 520000000   1.372978       308.91466      293.46893      34.991005    
 530000000   1.3790095      311.11544      295.55967      35.240289    
 540000000   7.0882643      272.36096      258.74291      30.850539    
 550000000  -10.626393      330.78878      314.24934      37.468704    
 560000000   9.9548631      273.65315      259.97049      30.996906    
 570000000   2.0758251      376.37509      357.55633      42.6323      
 580000000  -8.7854811      349.60888      332.12843      39.600471    
 590000000   9.7010171      279.83412      265.84242      31.69703     
 600000000  -1.5359982      341.42203      324.35093      38.67314     
 610000000   20.132632      280.49606      266.47125      31.772008    
 620000000   11.862681      254.52465      241.79842      28.830206    
 630000000   9.6014095      305.56381      290.28562      34.611451    
 640000000   21.797546      319.39874      303.4288       36.178545    
 650000000   12.164476      313.26425      297.60104      35.483687    
 660000000   7.5233928      288.21386      273.80317      32.646209    
 670000000   4.496641       261.554        248.4763       29.626426    
 680000000  -45.265248      295.98576      281.18647      33.526538    
 690000000  -16.688539      292.9505       278.30297      33.182732    
 700000000  -0.55320858     320.20866      304.19823      36.270285    
 710000000   3.8030131      259.83455      246.84283      29.431663    
 720000000   4.604188       282.12957      268.02309      31.957037    
 730000000   9.4832701      276.31617      262.50036      31.298549    
 740000000   10.86496       243.52626      231.34995      27.58441     
 750000000  -0.72870474     297.46086      282.58782      33.693624    
 760000000   24.822421      267.46391      254.09072      30.295846    
 770000000   5.0461102      284.28385      270.06966      32.201054    
 780000000  -0.17941118     364.23053      346.019        41.256676    
 790000000   7.3630416      277.48622      263.61191      31.431081    
 800000000   94.142476      264.53837      251.31145      29.964468    
 810000000  -10.286354      303.73549      288.54872      34.404357    
 820000000  -28.204865      316.90912      301.06367      35.896544    
 830000000   1.4332527      325.14286      308.88572      36.829186    
 840000000  -4.3838025      389.33529      369.86853      44.100313    
 850000000  -13.727957      265.12405      251.86785      30.030808    
 860000000  -1.7554391      373.99943      355.29945      42.363207    
 870000000   0.11727098     305.39885      290.12891      34.592766    
 880000000   9.335111       285.36346      271.09528      32.323342    
 890000000   3.3566         389.36383      369.89564      44.103546    
 900000000  -8.9759197      334.28227      317.56815      37.864414    
 910000000   0.33932549     285.73909      271.45213      32.36589     
 920000000  -2.2669419      338.05153      321.14896      38.291362    
 930000000  -0.15258672     363.21724      345.05638      41.141901    
 940000000  -3.2894512      255.58981      242.81032      28.950857    
 950000000  -4.5671907      290.4748       275.95106      32.902308    
 960000000   23.681659      313.94448      298.24725      35.560736    
 970000000  -6.621199       375.16085      356.4028       42.494762    
 980000000  -4.358172       298.42663      283.5053       33.803018    
 990000000  -3.0827866      285.5844       271.30518      32.348368    
1000000000   13.103687      313.0881       297.43369      35.463733    
Loop time of 4584.21 on 1 procs for 1000000000 steps with 41 atoms

Performance: 0.019 ns/day, 1273.392 hours/ns, 218140.037 timesteps/s, 8.944 Matom-step/s
100.0% CPU use with 1 MPI tasks x 1 OpenMP threads

MPI task timing breakdown:
Section |  min time  |  avg time  |  max time  |%varavg| %total
---------------------------------------------------------------
Pair    | 0          | 0          | 0          |   0.0 |  0.00
Bond    | 1934.2     | 1934.2     | 1934.2     |   0.0 | 42.19
Neigh   | 0          | 0          | 0          |   0.0 |  0.00
Comm    | 78.436     | 78.436     | 78.436     |   0.0 |  1.71
Output  | 0.0037035  | 0.0037035  | 0.0037035  |   0.0 |  0.00
Modify  | 2212       | 2212       | 2212       |   0.0 | 48.25
Other   |            | 359.6      |            |       |  7.84

Nlocal:             41 ave          41 max          41 min
Histogram: 1 0 0 0 0 0 0 0 0 0
Nghost:              0 ave           0 max           0 min
Histogram: 1 0 0 0 0 0 0 0 0 0
Neighs:              0 ave           0 max           0 min
Histogram: 1 0 0 0 0 0 0 0 0 0

Total # of neighbors = 0
Ave neighs/atom = 0
Ave special neighs/atom = 5.7073171
Neighbor list builds = 0
Dangerous builds = 0
Total wall time: 1:16:24
