
variable totLength equal 10
variable dispDist equal "v_totLength * v_dispRatio / 2"

variable seed equal 1
units real
boundary p p p

atom_style molecular

region main block -500 500 -500 500 -500 500

create_box 11 main bond/types 10 angle/types 9 extra/bond/per/atom 2 extra/angle/per/atom 3 extra/special/per/atom 6
Created orthogonal box = (-500 -500 -500) to (500 500 500)
  1 by 1 by 1 MPI processor grid

molecule WLC_11 Structures/Production/relaxed_WLC_11.txt
Read molecule template WLC_11:
# Relaxed Production Model for Worm-Like Chain
  1 molecules
  0 fragments
  11 atoms with max type 11
  10 bonds with max type 10
  9 angles with max type 9
  0 dihedrals with max type 0
  0 impropers with max type 0
bond_style harmonic
angle_style harmonic
dihedral_style none

create_atoms 0 single 0 0 0 mol WLC_11 ${seed} rotate 0 0 0 1
create_atoms 0 single 0 0 0 mol WLC_11 1 rotate 0 0 0 1
Created 11 atoms
  using lattice units in orthogonal box = (-500 -500 -500) to (500 500 500)
  create_atoms CPU = 0.001 seconds

read_data Structures/Coeffs/coeffs_WLC_11.data add merge
Reading data file ...
  orthogonal box = (-500 -500 -500) to (500 500 500)
  1 by 1 by 1 MPI processor grid
Finding 1-2 1-3 1-4 neighbors ...
  special bond factors lj:    0        0        0       
  special bond factors coul:  0        0        0       
     3 = max # of 1-2 neighbors
     6 = max # of 1-3 neighbors
    18 = max # of 1-4 neighbors
    13 = max # of special neighbors
  special bonds CPU = 0.003 seconds
  read_data CPU = 0.016 seconds
bond_coeff * 0 1

group internals type 2:10
9 atoms in group internals
group endpointAlpha type 1
1 atoms in group endpointAlpha
group endpointOmega type 11
1 atoms in group endpointOmega
group endpoints subtract all internals
2 atoms in group endpoints

displace_atoms endpointAlpha move 0 ${dispDist} 0 units box
displace_atoms endpointAlpha move 0 4.85 0 units box
Displacing atoms ...
displace_atoms endpointOmega move 0 -${dispDist} 0 units box
displace_atoms endpointOmega move 0 -4.85 0 units box
Displacing atoms ...

variable k_restrain equal 100

fix restraint all arclengthrestraint WLC_11 ${k_restrain} ${totLength}
fix restraint all arclengthrestraint WLC_11 100 ${totLength}
fix restraint all arclengthrestraint WLC_11 100 10
fix_modify restraint energy yes

comm_modify cutoff 100

compute internalsTemp internals temp
thermo_style custom step pe ke fnorm epair epair ebond eangle edihed etotal

fix stationary endpoints setforce 0 0 0
min_modify dmax 10 norm max line backtrack # backtrack is necessary because minimizing points of restraint energy are degenerate
minimize 0 0 100000 100000
Neighbor list info ...
  update: every = 1 steps, delay = 0 steps, check = yes
  max neighbors/atom: 2000, page size: 100000
  master list distance cutoff = 0
  ghost atom cutoff = 100
  binsize = 1000, bins = 1 1 1
  1 neighbor lists, perpetual/occasional/extra = 1 0 0
  (1) fix arclengthrestraint, perpetual
      attributes: half, newton on
      pair build: half/bin/newton
      stencil: half/bin/3d
      bin: standard
WARNING: No pairwise cutoff or binsize set. Atom sorting therefore disabled. (../atom.cpp:2442)
Per MPI rank memory allocation (min/avg/max) = 8.621 | 8.621 | 8.621 Mbytes
   Step         PotEng         KinEng         Fnorm          E_pair         E_pair         E_bond        E_angle        E_dihed         TotEng    
         0   120.01642      0              9406.1636      0              0              0              4.3341836      0              120.01642    
       254   11.663492      0              77.303867      0              0              0              0.22549871     0              11.663492    
Loop time of 0.0116221 on 1 procs for 254 steps with 11 atoms

100.0% CPU use with 1 MPI tasks x 1 OpenMP threads

Minimization stats:
  Stopping criterion = linesearch alpha is zero
  Energy initial, next-to-last, final = 
      120.016416717502   11.6634923940683   11.6634923940683
  Force two-norm initial, final = 9406.1636 77.303867
  Force max component initial, final = 6277.1657 49.327675
  Final line search alpha, max atom move = 1.4750255e-12 7.2759576e-11
  Iterations, force evaluations = 254 4516

MPI task timing breakdown:
Section |  min time  |  avg time  |  max time  |%varavg| %total
---------------------------------------------------------------
Pair    | 0          | 0          | 0          |   0.0 |  0.00
Bond    | 0.0030097  | 0.0030097  | 0.0030097  |   0.0 | 25.90
Neigh   | 0.0011428  | 0.0011428  | 0.0011428  |   0.0 |  9.83
Comm    | 0.00075111 | 0.00075111 | 0.00075111 |   0.0 |  6.46
Output  | 0          | 0          | 0          |   0.0 |  0.00
Modify  | 0.0017901  | 0.0017901  | 0.0017901  |   0.0 | 15.40
Other   |            | 0.004928   |            |       | 42.41

Nlocal:             11 ave          11 max          11 min
Histogram: 1 0 0 0 0 0 0 0 0 0
Nghost:              0 ave           0 max           0 min
Histogram: 1 0 0 0 0 0 0 0 0 0
Neighs:              0 ave           0 max           0 min
Histogram: 1 0 0 0 0 0 0 0 0 0

Total # of neighbors = 0
Ave neighs/atom = 0
Ave special neighs/atom = 4.9090909
Neighbor list builds = 1253
Dangerous builds = 748
unfix stationary

reset_timestep 0
timestep 1e-6

fix integrate internals nvt temp 310.0 310.0 $(10.0*dt)
fix integrate internals nvt temp 310.0 310.0 9.999999999999999124e-06
velocity internals create 310.0 ${seed} dist gaussian
velocity internals create 310.0 1 dist gaussian


compute endForce endpointOmega reduce ave fy # Obtain force on endpoint
variable computedForce equal c_endForce # fix print cannot directly print out computes
thermo_style custom step c_endForce c_integrate_temp temp ke

neighbor 100.0 bin
run 0
WARNING: Communication cutoff 100 is shorter than a bond length based estimate of 101.5. This may lead to errors. (../comm.cpp:730)
Per MPI rank memory allocation (min/avg/max) = 7.496 | 7.496 | 7.496 Mbytes
   Step       c_endForce   c_integrate_temp      Temp          KinEng    
         0  -0.036211132    310            248            7.3924089    
Loop time of 8.12e-07 on 1 procs for 0 steps with 11 atoms

123.2% CPU use with 1 MPI tasks x 1 OpenMP threads

MPI task timing breakdown:
Section |  min time  |  avg time  |  max time  |%varavg| %total
---------------------------------------------------------------
Pair    | 0          | 0          | 0          |   0.0 |  0.00
Bond    | 0          | 0          | 0          |   0.0 |  0.00
Neigh   | 0          | 0          | 0          |   0.0 |  0.00
Comm    | 0          | 0          | 0          |   0.0 |  0.00
Output  | 0          | 0          | 0          |   0.0 |  0.00
Modify  | 0          | 0          | 0          |   0.0 |  0.00
Other   |            | 8.12e-07   |            |       |100.00

Nlocal:             11 ave          11 max          11 min
Histogram: 1 0 0 0 0 0 0 0 0 0
Nghost:              0 ave           0 max           0 min
Histogram: 1 0 0 0 0 0 0 0 0 0
Neighs:              0 ave           0 max           0 min
Histogram: 1 0 0 0 0 0 0 0 0 0

Total # of neighbors = 0
Ave neighs/atom = 0
Ave special neighs/atom = 4.9090909
Neighbor list builds = 0
Dangerous builds = 0
velocity internals scale 310.0

variable sampFreq equal 10000000 # Sample force on endpoints every this-many timesteps.
variable numSamps equal 100 # Number of force samples to take.
variable numSteps equal "v_sampFreq * v_numSamps"
thermo ${sampFreq}
thermo 10000000

# Print out force on endpoint below
fix printForces all print ${sampFreq} "${computedForce}" file Out_Force_Extension/data/data_WLC_11_dispRatio_$(v_dispRatio:%.2f).txt screen no
fix printForces all print 10000000 "${computedForce}" file Out_Force_Extension/data/data_WLC_11_dispRatio_$(v_dispRatio:%.2f).txt screen no
fix printForces all print 10000000 "${computedForce}" file Out_Force_Extension/data/data_WLC_11_dispRatio_0.97.txt screen no

### Below is for validation purposes ###
compute blen all bond/local dist
compute end2end all reduce sum c_blen inputs local
variable totLen equal c_end2end

variable computedTemp equal c_integrate_temp
# variable sysTemp equal temp
# variable sysKE equal ke

variable validFile_end2end string "Out_Force_Extension/validation/end2end_WLC_11_Force_Extension_dispRatio_$(v_dispRatio:%.2f).txt"
Out_Force_Extension/validation/end2end_WLC_11_Force_Extension_dispRatio_0.97.txt
fix print_end2end all print ${sampFreq} "${totLen}" file ${validFile_end2end} screen no title "End-to-end arc length of WLC with 11 atoms"
fix print_end2end all print 10000000 "${totLen}" file ${validFile_end2end} screen no title "End-to-end arc length of WLC with 11 atoms"
fix print_end2end all print 10000000 "${totLen}" file Out_Force_Extension/validation/end2end_WLC_11_Force_Extension_dispRatio_0.97.txt screen no title "End-to-end arc length of WLC with 11 atoms"

variable validFile_internalsTemp string "Out_Force_Extension/validation/internalsTemp_WLC_11_Force_Extension_dispRatio_$(v_dispRatio:%.2f).txt"
Out_Force_Extension/validation/internalsTemp_WLC_11_Force_Extension_dispRatio_0.97.txt
fix print_internalsTemp all print ${sampFreq} "${computedTemp}" file ${validFile_internalsTemp} screen no title "Temperature (K) of internal atoms of WLC with 11 atoms"
fix print_internalsTemp all print 10000000 "${computedTemp}" file ${validFile_internalsTemp} screen no title "Temperature (K) of internal atoms of WLC with 11 atoms"
fix print_internalsTemp all print 10000000 "${computedTemp}" file Out_Force_Extension/validation/internalsTemp_WLC_11_Force_Extension_dispRatio_0.97.txt screen no title "Temperature (K) of internal atoms of WLC with 11 atoms"
### End of validation block ###


run ${numSteps}
run 1000000000
WARNING: Communication cutoff 100 is shorter than a bond length based estimate of 101.5. This may lead to errors. (../comm.cpp:730)
Per MPI rank memory allocation (min/avg/max) = 7.572 | 7.572 | 7.572 Mbytes
   Step       c_endForce   c_integrate_temp      Temp          KinEng    
         0  -0.036211132    310            248            7.3924089    
  10000000   14.499652      193.39443      154.71555      4.6117765    
  20000000   12.802139      238.22836      190.58268      5.6809078    
  30000000   9.9900162      246.98881      197.59105      5.8898139    
  40000000   8.2131303      200.89133      160.71306      4.7905512    
  50000000   7.2013357      293.40722      234.72578      6.9967296    
  60000000   6.0810912      196.35241      157.08193      4.682314     
  70000000   4.8982511      268.5327       214.82616      6.4035597    
  80000000   4.0016917      361.2767       289.02136      8.6151776    
  90000000   2.7398605      360.47843      288.38274      8.5961418    
 100000000   1.4724246      330.84217      264.67373      7.8894212    
 110000000   0.48443583     413.86855      331.09484      9.8693084    
 120000000  -0.37251959     299.44017      239.55213      7.1405941    
 130000000  -1.4580932      459.50262      367.60209      10.95752     
 140000000  -1.9228007      278.93642      223.14914      6.6516519    
 150000000  -1.6315797      283.16633      226.53306      6.7525203    
 160000000  -1.3579863      230.35455      184.28364      5.4931453    
 170000000  -0.68520282     358.93103      287.14482      8.5592417    
 180000000   0.4150266      258.1637       206.53096      6.1562955    
 190000000   1.9513062      326.32357      261.05886      7.7816687    
 200000000   3.4335561      441.58653      353.26922      10.530284    
 210000000   4.9559553      225.75272      180.60217      5.3834077    
 220000000   7.2164232      339.85404      271.88323      8.1043226    
 230000000   9.9423137      260.22521      208.18017      6.2054553    
 240000000   12.134839      353.38589      282.70871      8.4270096    
 250000000   12.246396      211.49478      169.19583      5.0434062    
 260000000   7.9675466      281.32959      225.06367      6.7087206    
 270000000   9.9958579      204.66026      163.72821      4.8804269    
 280000000   12.245326      252.04199      201.63359      6.0103143    
 290000000   6.210671       209.90689      167.92551      5.0055405    
 300000000   2.1741639      304.24436      243.39549      7.2551572    
 310000000   3.077907       397.11226      317.68981      9.4697296    
 320000000   1.8210376      417.96023      334.36818      9.9668804    
 330000000   0.40390555     262.16676      209.73341      6.2517546    
 340000000  -0.5357919      246.21811      196.97449      5.8714354    
 350000000  -1.4586943      346.04865      276.83892      8.2520423    
 360000000  -2.2812134      447.59919      358.07935      10.673665    
 370000000  -2.2106035      313.71058      250.96846      7.4808932    
 380000000  -1.1398017      401.47878      321.18302      9.5738558    
 390000000   0.22037895     251.66994      201.33596      6.0014424    
 400000000   1.3411279      278.71961      222.97568      6.6464816    
 410000000   2.6463495      188.29408      150.63526      4.4901511    
 420000000   4.6655529      295.93772      236.75018      7.0570731    
 430000000   6.8517386      244.02086      195.21669      5.8190387    
 440000000   8.1035997      157.97262      126.3781       3.767091     
 450000000   8.9886703      306.44365      245.15492      7.3076025    
 460000000   10.486538      335.66826      268.53461      8.0045065    
 470000000   11.009599      220.68141      176.54513      5.262475     
 480000000   9.4099384      349.49826      279.59861      8.3343034    
 490000000   9.2778686      355.06234      284.04987      8.466987     
 500000000   9.3796197      252.68157      202.14525      6.025566     
 510000000   7.9492471      365.44604      292.35683      8.7146019    
 520000000   5.5376709      307.62489      246.09991      7.3357709    
 530000000   3.9395372      234.53588      187.62871      5.5928553    
 540000000   2.9931582      275.17438      220.1395       6.5619404    
 550000000   2.7928615      270.12123      216.09698      6.4414406    
 560000000   2.5518169      233.79976      187.03981      5.5753015    
 570000000   2.2983279      355.54957      284.43966      8.478606     
 580000000   2.3250952      445.96544      356.77235      10.634706    
 590000000   1.9349142      447.16404      357.73123      10.663289    
 600000000   1.3614404      392.6728       314.13824      9.3638642    
 610000000   1.2626917      306.34031      245.07225      7.3051382    
 620000000   1.2474987      232.07461      185.65968      5.5341625    
 630000000   1.306093       301.19025      240.9522       7.1823274    
 640000000   1.8453608      225.33691      180.26953      5.3734921    
 650000000   2.6578462      278.28142      222.62513      6.6360324    
 660000000   3.5998058      208.96725      167.1738       4.9831334    
 670000000   4.425018       374.31145      299.44916      8.9260106    
 680000000   5.3790098      536.27483      429.01987      12.788267    
 690000000   6.0370863      322.16481      257.73184      7.6824967    
 700000000   6.5995777      322.57521      258.06017      7.6922835    
 710000000   9.1450837      305.01294      244.01035      7.2734851    
 720000000   11.348922      349.17474      279.33979      8.3265886    
 730000000   9.5869242      517.28233      413.82586      12.335363    
 740000000   3.6886994      518.57723      414.86178      12.366242    
 750000000   7.9418563      316.63182      253.30546      7.5505545    
 760000000   5.4222565      402.05291      321.64233      9.5875468    
 770000000   3.3401059      299.92896      239.94317      7.1522502    
 780000000   1.16587        478.7605       383.0084       11.416753    
 790000000  -0.41948571     243.3258       194.66064      5.8024639    
 800000000  -0.83557031     334.22393      267.37914      7.9700644    
 810000000  -0.039676039    433.55247      346.84198      10.338701    
 820000000   1.0424558      251.28365      201.02692      5.9922307    
 830000000   2.1613633      396.97524      317.58019      9.4664623    
 840000000   2.8953963      354.8004       283.84032      8.4607407    
 850000000   3.7531288      249.90706      199.92564      5.9594037    
 860000000   5.7203328      420.00181      336.00145      10.015565    
 870000000   6.2369007      317.88361      254.30689      7.5804053    
 880000000   5.0505442      471.30609      377.04487      11.238991    
 890000000   3.9371874      271.87828      217.50263      6.4833401    
 900000000   5.0832693      293.69954      234.95963      7.0037003    
 910000000   4.4063881      456.74659      365.39727      10.891799    
 920000000   4.5926936      380.69814      304.55851      9.0783106    
 930000000   6.4076093      344.59252      275.67401      8.2173187    
 940000000   7.0907456      288.75847      231.00677      6.8858731    
 950000000   8.975195       295.85183      236.68146      7.0550248    
 960000000   9.5552061      118.41048      94.728381      2.8236731    
 970000000   9.4911223      229.35532      183.48426      5.4693172    
 980000000   7.6720687      395.68686      316.54949      9.4357391    
 990000000   5.8715805      322.50078      258.00062      7.6905085    
1000000000   4.9070944      312.14702      249.71762      7.4436078    
Loop time of 1610.59 on 1 procs for 1000000000 steps with 11 atoms

Performance: 0.054 ns/day, 447.387 hours/ns, 620889.696 timesteps/s, 6.830 Matom-step/s
100.0% CPU use with 1 MPI tasks x 1 OpenMP threads

MPI task timing breakdown:
Section |  min time  |  avg time  |  max time  |%varavg| %total
---------------------------------------------------------------
Pair    | 0          | 0          | 0          |   0.0 |  0.00
Bond    | 534.87     | 534.87     | 534.87     |   0.0 | 33.21
Neigh   | 0          | 0          | 0          |   0.0 |  0.00
Comm    | 69.099     | 69.099     | 69.099     |   0.0 |  4.29
Output  | 0.0018123  | 0.0018123  | 0.0018123  |   0.0 |  0.00
Modify  | 792.43     | 792.43     | 792.43     |   0.0 | 49.20
Other   |            | 214.2      |            |       | 13.30

Nlocal:             11 ave          11 max          11 min
Histogram: 1 0 0 0 0 0 0 0 0 0
Nghost:              0 ave           0 max           0 min
Histogram: 1 0 0 0 0 0 0 0 0 0
Neighs:              0 ave           0 max           0 min
Histogram: 1 0 0 0 0 0 0 0 0 0

Total # of neighbors = 0
Ave neighs/atom = 0
Ave special neighs/atom = 4.9090909
Neighbor list builds = 0
Dangerous builds = 0
Total wall time: 0:26:50
