
variable totLength equal 10
variable dispDist equal "v_totLength * v_dispRatio / 2"

variable seed equal 1
units real
boundary p p p

atom_style molecular

region main block -500 500 -500 500 -500 500

create_box 11 main bond/types 10 angle/types 9 extra/bond/per/atom 2 extra/angle/per/atom 3 extra/special/per/atom 6
Created orthogonal box = (-500 -500 -500) to (500 500 500)
  1 by 1 by 1 MPI processor grid

molecule WLC_11 Structures/Production/relaxed_WLC_11.txt
Read molecule template WLC_11:
# Relaxed Production Model for Worm-Like Chain
  1 molecules
  0 fragments
  11 atoms with max type 11
  10 bonds with max type 10
  9 angles with max type 9
  0 dihedrals with max type 0
  0 impropers with max type 0
bond_style harmonic
angle_style harmonic
dihedral_style none

create_atoms 0 single 0 0 0 mol WLC_11 ${seed} rotate 0 0 0 1
create_atoms 0 single 0 0 0 mol WLC_11 1 rotate 0 0 0 1
Created 11 atoms
  using lattice units in orthogonal box = (-500 -500 -500) to (500 500 500)
  create_atoms CPU = 0.001 seconds

read_data Structures/Coeffs/coeffs_WLC_11.data add merge
Reading data file ...
  orthogonal box = (-500 -500 -500) to (500 500 500)
  1 by 1 by 1 MPI processor grid
Finding 1-2 1-3 1-4 neighbors ...
  special bond factors lj:    0        0        0       
  special bond factors coul:  0        0        0       
     3 = max # of 1-2 neighbors
     6 = max # of 1-3 neighbors
    18 = max # of 1-4 neighbors
    13 = max # of special neighbors
  special bonds CPU = 0.000 seconds
  read_data CPU = 0.012 seconds
bond_coeff * 0 1

group internals type 2:10
9 atoms in group internals
group endpointAlpha type 1
1 atoms in group endpointAlpha
group endpointOmega type 11
1 atoms in group endpointOmega
group endpoints subtract all internals
2 atoms in group endpoints

displace_atoms endpointAlpha move 0 ${dispDist} 0 units box
displace_atoms endpointAlpha move 0 3.25 0 units box
Displacing atoms ...
displace_atoms endpointOmega move 0 -${dispDist} 0 units box
displace_atoms endpointOmega move 0 -3.25 0 units box
Displacing atoms ...

variable k_restrain equal 100

fix restraint all arclengthrestraint WLC_11 ${k_restrain} ${totLength}
fix restraint all arclengthrestraint WLC_11 100 ${totLength}
fix restraint all arclengthrestraint WLC_11 100 10
fix_modify restraint energy yes

comm_modify cutoff 100

compute internalsTemp internals temp
thermo_style custom step pe ke fnorm epair epair ebond eangle edihed etotal

fix stationary endpoints setforce 0 0 0
min_modify dmax 10 norm max line backtrack # backtrack is necessary because minimizing points of restraint energy are degenerate
minimize 0 0 100000 100000
Neighbor list info ...
  update: every = 1 steps, delay = 0 steps, check = yes
  max neighbors/atom: 2000, page size: 100000
  master list distance cutoff = 0
  ghost atom cutoff = 100
  binsize = 1000, bins = 1 1 1
  1 neighbor lists, perpetual/occasional/extra = 1 0 0
  (1) fix arclengthrestraint, perpetual
      attributes: half, newton on
      pair build: half/bin/newton
      stencil: half/bin/3d
      bin: standard
WARNING: No pairwise cutoff or binsize set. Atom sorting therefore disabled. (../atom.cpp:2442)
Per MPI rank memory allocation (min/avg/max) = 8.621 | 8.621 | 8.621 Mbytes
   Step         PotEng         KinEng         Fnorm          E_pair         E_pair         E_bond        E_angle        E_dihed         TotEng    
         0   25.724522      0              7223.5947      0              0              0              3.5568602      0              25.724522    
        80   1.9722754      0              8.7120917      0              0              0              0.99529518     0              1.9722754    
Loop time of 0.00396212 on 1 procs for 80 steps with 11 atoms

96.7% CPU use with 1 MPI tasks x 1 OpenMP threads

Minimization stats:
  Stopping criterion = linesearch alpha is zero
  Energy initial, next-to-last, final = 
      25.7245224618445   1.97227541428269   1.97227541428269
  Force two-norm initial, final = 7223.5947 8.7120917
  Force max component initial, final = 4835.094 5.8126078
  Final line search alpha, max atom move = 1.1641532e-10 6.7667661e-10
  Iterations, force evaluations = 80 1482

MPI task timing breakdown:
Section |  min time  |  avg time  |  max time  |%varavg| %total
---------------------------------------------------------------
Pair    | 0          | 0          | 0          |   0.0 |  0.00
Bond    | 0.00097949 | 0.00097949 | 0.00097949 |   0.0 | 24.72
Neigh   | 0.00041478 | 0.00041478 | 0.00041478 |   0.0 | 10.47
Comm    | 0.00023753 | 0.00023753 | 0.00023753 |   0.0 |  5.99
Output  | 0          | 0          | 0          |   0.0 |  0.00
Modify  | 0.00057582 | 0.00057582 | 0.00057582 |   0.0 | 14.53
Other   |            | 0.001755   |            |       | 44.28

Nlocal:             11 ave          11 max          11 min
Histogram: 1 0 0 0 0 0 0 0 0 0
Nghost:              0 ave           0 max           0 min
Histogram: 1 0 0 0 0 0 0 0 0 0
Neighs:              0 ave           0 max           0 min
Histogram: 1 0 0 0 0 0 0 0 0 0

Total # of neighbors = 0
Ave neighs/atom = 0
Ave special neighs/atom = 4.9090909
Neighbor list builds = 391
Dangerous builds = 233
unfix stationary

reset_timestep 0
timestep 1e-6

fix integrate internals nvt temp 310.0 310.0 $(10.0*dt)
fix integrate internals nvt temp 310.0 310.0 9.999999999999999124e-06
velocity internals create 310.0 ${seed} dist gaussian
velocity internals create 310.0 1 dist gaussian


compute endForce endpointOmega reduce ave fy # Obtain force on endpoint
variable computedForce equal c_endForce # fix print cannot directly print out computes
thermo_style custom step c_endForce c_integrate_temp temp ke

neighbor 100.0 bin
run 0
WARNING: Communication cutoff 100 is shorter than a bond length based estimate of 101.5. This may lead to errors. (../comm.cpp:730)
Per MPI rank memory allocation (min/avg/max) = 7.496 | 7.496 | 7.496 Mbytes
   Step       c_endForce   c_integrate_temp      Temp          KinEng    
         0  -0.059001657    310            248            7.3924089    
Loop time of 8.11e-07 on 1 procs for 0 steps with 11 atoms

123.3% CPU use with 1 MPI tasks x 1 OpenMP threads

MPI task timing breakdown:
Section |  min time  |  avg time  |  max time  |%varavg| %total
---------------------------------------------------------------
Pair    | 0          | 0          | 0          |   0.0 |  0.00
Bond    | 0          | 0          | 0          |   0.0 |  0.00
Neigh   | 0          | 0          | 0          |   0.0 |  0.00
Comm    | 0          | 0          | 0          |   0.0 |  0.00
Output  | 0          | 0          | 0          |   0.0 |  0.00
Modify  | 0          | 0          | 0          |   0.0 |  0.00
Other   |            | 8.11e-07   |            |       |100.00

Nlocal:             11 ave          11 max          11 min
Histogram: 1 0 0 0 0 0 0 0 0 0
Nghost:              0 ave           0 max           0 min
Histogram: 1 0 0 0 0 0 0 0 0 0
Neighs:              0 ave           0 max           0 min
Histogram: 1 0 0 0 0 0 0 0 0 0

Total # of neighbors = 0
Ave neighs/atom = 0
Ave special neighs/atom = 4.9090909
Neighbor list builds = 0
Dangerous builds = 0
velocity internals scale 310.0

variable sampFreq equal 10000000 # Sample force on endpoints every this-many timesteps.
variable numSamps equal 100 # Number of force samples to take.
variable numSteps equal "v_sampFreq * v_numSamps"
thermo ${sampFreq}
thermo 10000000

# Print out force on endpoint below
fix printForces all print ${sampFreq} "${computedForce}" file Out_Force_Extension/data/data_WLC_11_dispRatio_$(v_dispRatio:%.2f).txt screen no
fix printForces all print 10000000 "${computedForce}" file Out_Force_Extension/data/data_WLC_11_dispRatio_$(v_dispRatio:%.2f).txt screen no
fix printForces all print 10000000 "${computedForce}" file Out_Force_Extension/data/data_WLC_11_dispRatio_0.65.txt screen no

### Below is for validation purposes ###
compute blen all bond/local dist
compute end2end all reduce sum c_blen inputs local
variable totLen equal c_end2end

variable computedTemp equal c_integrate_temp
# variable sysTemp equal temp
# variable sysKE equal ke

variable validFile_end2end string "Out_Force_Extension/validation/end2end_WLC_11_Force_Extension_dispRatio_$(v_dispRatio:%.2f).txt"
Out_Force_Extension/validation/end2end_WLC_11_Force_Extension_dispRatio_0.65.txt
fix print_end2end all print ${sampFreq} "${totLen}" file ${validFile_end2end} screen no title "End-to-end arc length of WLC with 11 atoms"
fix print_end2end all print 10000000 "${totLen}" file ${validFile_end2end} screen no title "End-to-end arc length of WLC with 11 atoms"
fix print_end2end all print 10000000 "${totLen}" file Out_Force_Extension/validation/end2end_WLC_11_Force_Extension_dispRatio_0.65.txt screen no title "End-to-end arc length of WLC with 11 atoms"

variable validFile_internalsTemp string "Out_Force_Extension/validation/internalsTemp_WLC_11_Force_Extension_dispRatio_$(v_dispRatio:%.2f).txt"
Out_Force_Extension/validation/internalsTemp_WLC_11_Force_Extension_dispRatio_0.65.txt
fix print_internalsTemp all print ${sampFreq} "${computedTemp}" file ${validFile_internalsTemp} screen no title "Temperature (K) of internal atoms of WLC with 11 atoms"
fix print_internalsTemp all print 10000000 "${computedTemp}" file ${validFile_internalsTemp} screen no title "Temperature (K) of internal atoms of WLC with 11 atoms"
fix print_internalsTemp all print 10000000 "${computedTemp}" file Out_Force_Extension/validation/internalsTemp_WLC_11_Force_Extension_dispRatio_0.65.txt screen no title "Temperature (K) of internal atoms of WLC with 11 atoms"
### End of validation block ###


run ${numSteps}
run 1000000000
WARNING: Communication cutoff 100 is shorter than a bond length based estimate of 101.5. This may lead to errors. (../comm.cpp:730)
Per MPI rank memory allocation (min/avg/max) = 7.572 | 7.572 | 7.572 Mbytes
   Step       c_endForce   c_integrate_temp      Temp          KinEng    
         0  -0.059001657    310            248            7.3924089    
  10000000   5.5282867      240.48904      192.39123      5.7348173    
  20000000   6.5263289      474.24687      379.39749      11.309119    
  30000000   3.5730434      284.74689      227.79751      6.7902112    
  40000000  -0.98069289     332.49033      265.99227      7.9287242    
  50000000  -3.7965403      361.42878      289.14302      8.6188042    
  60000000  -2.2914635      269.5747       215.65976      6.4284079    
  70000000   1.2459318      251.71524      201.37219      6.0025226    
  80000000   3.5443831      208.10001      166.48001      4.9624529    
  90000000  -0.045297119    280.49739      224.39791      6.6888756    
 100000000  -2.316764       287.26752      229.81401      6.8503192    
 110000000  -1.3223526      326.52529      261.22023      7.786479     
 120000000   0.82222409     215.67178      172.53742      5.1430129    
 130000000  -0.36057895     351.13731      280.90985      8.373389     
 140000000  -3.2406011      301.26234      241.00987      7.1840465    
 150000000  -5.6440455      368.68724      294.94979      8.791893     
 160000000  -7.0818661      244.76604      195.81283      5.8368087    
 170000000  -2.169864       354.02419      283.21935      8.442231     
 180000000   2.0343766      230.27311      184.21849      5.4912033    
 190000000   1.5516253      243.96025      195.1682       5.8175934    
 200000000   1.3364154      271.79915      217.43932      6.4814532    
 210000000  -1.2724079      230.86111      184.68889      5.505225     
 220000000  -0.16963087     289.45972      231.56777      6.9025955    
 230000000   0.086954488    319.34517      255.47614      7.6152583    
 240000000   0.78138021     394.06982      315.25586      9.3971783    
 250000000   1.1052147      289.64178      231.71343      6.9069371    
 260000000   1.8855246      207.10872      165.68698      4.938814     
 270000000   1.1626174      147.90329      118.32263      3.526973     
 280000000  -0.19886166     315.20761      252.16609      7.5165921    
 290000000  -1.9206627      243.35495      194.68396      5.8031591    
 300000000  -5.0786088      420.23633      336.18906      10.021157    
 310000000  -5.1943568      400.18998      320.15198      9.5431224    
 320000000  -0.86169195     444.21727      355.37381      10.593018    
 330000000   1.7496026      212.60936      170.08749      5.0699851    
 340000000   2.1260901      325.05566      260.04453      7.7514335    
 350000000  -0.74959511     180.90867      144.72694      4.3140352    
 360000000   0.97167312     646.82018      517.45614      15.424385    
 370000000   0.95968513     292.09356      233.67485      6.9654034    
 380000000  -6.7055872      316.2773       253.02184      7.5421003    
 390000000  -3.3985152      367.22981      293.78385      8.7571385    
 400000000  -1.7672795      272.1347       217.70776      6.4894548    
 410000000   1.2561734      168.94086      135.15269      4.0286449    
 420000000   1.8519043      336.28775      269.0302       8.0192791    
 430000000  -0.62078696     251.15097      200.92078      5.9890667    
 440000000   0.85624066     262.77398      210.21919      6.2662346    
 450000000   1.2853005      349.24473      279.39579      8.3282576    
 460000000   0.54567689     239.87491      191.89993      5.7201724    
 470000000  -0.95508989     141.9578       113.56624      3.3851938    
 480000000  -2.0825795      361.85603      289.48482      8.6289927    
 490000000  -2.2784814      449.26879      359.41504      10.71348     
 500000000  -0.09925587     350.13018      280.10414      8.3493725    
 510000000   1.8976442      208.34879      166.67904      4.9683854    
 520000000   0.43230496     243.90617      195.12493      5.8163037    
 530000000   0.28870774     206.17676      164.94141      4.9165901    
 540000000   0.64108379     318.60082      254.88066      7.5975083    
 550000000  -1.1209816      203.38709      162.70967      4.8500662    
 560000000  -1.0566992      255.24668      204.19734      6.086735     
 570000000  -0.052579699    364.87144      291.89715      8.7008997    
 580000000   0.19066579     339.62599      271.70079      8.0988845    
 590000000   1.3377018      381.19583      304.95667      9.090179     
 600000000   0.64963281     262.11617      209.69293      6.250548     
 610000000  -1.9829365      411.26696      329.01356      9.8072694    
 620000000   1.0047462      324.24173      259.39338      7.732024     
 630000000   2.9480358      262.7979       210.23832      6.2668049    
 640000000  -0.6669275      339.99007      271.99206      8.1075666    
 650000000  -2.6866389      311.22888      248.9831       7.4217134    
 660000000  -2.3728584      200.64043      160.51234      4.784568     
 670000000  -1.5590715      163.97923      131.18339      3.9103276    
 680000000  -2.0510537      330.15657      264.12525      7.8730721    
 690000000  -4.3026495      506.58747      405.26998      12.080328    
 700000000  -0.13990979     456.42638      365.14111      10.884163    
 710000000  -1.0488713      349.50465      279.60372      8.3344557    
 720000000  -1.0284832      234.54728      187.63783      5.5931272    
 730000000  -0.26899466     370.67786      296.54229      8.8393623    
 740000000  -1.6684115      428.95634      343.16507      10.229099    
 750000000  -0.33390272     314.64667      251.71734      7.5032157    
 760000000   3.064937       214.37727      171.50182      5.1121434    
 770000000  -0.047976105    429.81445      343.85156      10.249562    
 780000000  -2.3468513      297.0793       237.66344      7.0842957    
 790000000   2.5815812      238.17352      190.53881      5.6796001    
 800000000   2.7878461      344.57762      275.6621       8.2169635    
 810000000  -1.1717334      345.00246      276.00197      8.2270944    
 820000000   0.40161843     254.16761      203.33409      6.0610029    
 830000000   3.3525537      185.48143      148.38515      4.4230793    
 840000000   2.3420727      315.71776      252.57421      7.5287574    
 850000000  -0.11484515     191.86271      153.49017      4.5752505    
 860000000  -2.0518327      179.85753      143.88602      4.288969     
 870000000  -1.9137522      275.49934      220.39947      6.5696896    
 880000000  -0.68274347     226.999        181.5992       5.4131272    
 890000000  -2.6505804      516.47071      413.17657      12.316009    
 900000000  -2.8408284      591.43099      473.14479      14.103548    
 910000000  -0.64247528     180.17492      144.13994      4.2965377    
 920000000   1.5288709      237.62266      190.09813      5.6664641    
 930000000   2.9370906      214.41975      171.5358       5.1131563    
 940000000   0.475098       291.35584      233.08467      6.9478114    
 950000000  -1.0969143      196.55045      157.24036      4.6870365    
 960000000   2.4820184      383.53581      306.82865      9.1459793    
 970000000   2.9280173      333.85176      267.08141      7.9611894    
 980000000  -0.96150728     594.26242      475.40993      14.171067    
 990000000  -0.45803152     277.44802      221.95842      6.6161587    
1000000000   0.0047019998   342.38668      273.90934      8.1647172    
Loop time of 1580.2 on 1 procs for 1000000000 steps with 11 atoms

Performance: 0.055 ns/day, 438.943 hours/ns, 632833.120 timesteps/s, 6.961 Matom-step/s
100.0% CPU use with 1 MPI tasks x 1 OpenMP threads

MPI task timing breakdown:
Section |  min time  |  avg time  |  max time  |%varavg| %total
---------------------------------------------------------------
Pair    | 0          | 0          | 0          |   0.0 |  0.00
Bond    | 508.5      | 508.5      | 508.5      |   0.0 | 32.18
Neigh   | 0          | 0          | 0          |   0.0 |  0.00
Comm    | 69.11      | 69.11      | 69.11      |   0.0 |  4.37
Output  | 0.001957   | 0.001957   | 0.001957   |   0.0 |  0.00
Modify  | 785        | 785        | 785        |   0.0 | 49.68
Other   |            | 217.6      |            |       | 13.77

Nlocal:             11 ave          11 max          11 min
Histogram: 1 0 0 0 0 0 0 0 0 0
Nghost:              0 ave           0 max           0 min
Histogram: 1 0 0 0 0 0 0 0 0 0
Neighs:              0 ave           0 max           0 min
Histogram: 1 0 0 0 0 0 0 0 0 0

Total # of neighbors = 0
Ave neighs/atom = 0
Ave special neighs/atom = 4.9090909
Neighbor list builds = 0
Dangerous builds = 0
Total wall time: 0:26:20
