
variable totLength equal 10
variable dispDist equal "v_totLength * v_dispRatio / 2"

variable seed equal 1
units real
boundary p p p

atom_style molecular

region main block -500 500 -500 500 -500 500

create_box 21 main bond/types 20 angle/types 19 extra/bond/per/atom 2 extra/angle/per/atom 3 extra/special/per/atom 6
Created orthogonal box = (-500 -500 -500) to (500 500 500)
  1 by 1 by 1 MPI processor grid

molecule WLC_21 Structures/Production/relaxed_WLC_21.txt
Read molecule template WLC_21:
# Relaxed Production Model for Worm-Like Chain
  1 molecules
  0 fragments
  21 atoms with max type 21
  20 bonds with max type 20
  19 angles with max type 19
  0 dihedrals with max type 0
  0 impropers with max type 0
bond_style harmonic
angle_style harmonic
dihedral_style none

create_atoms 0 single 0 0 0 mol WLC_21 ${seed} rotate 0 0 0 1
create_atoms 0 single 0 0 0 mol WLC_21 1 rotate 0 0 0 1
Created 21 atoms
  using lattice units in orthogonal box = (-500 -500 -500) to (500 500 500)
  create_atoms CPU = 0.001 seconds

read_data Structures/Coeffs/coeffs_WLC_21.data add merge
Reading data file ...
  orthogonal box = (-500 -500 -500) to (500 500 500)
  1 by 1 by 1 MPI processor grid
Finding 1-2 1-3 1-4 neighbors ...
  special bond factors lj:    0        0        0       
  special bond factors coul:  0        0        0       
     3 = max # of 1-2 neighbors
     6 = max # of 1-3 neighbors
    18 = max # of 1-4 neighbors
    13 = max # of special neighbors
  special bonds CPU = 0.000 seconds
  read_data CPU = 0.009 seconds
bond_coeff * 0 1

group internals type 2:20
19 atoms in group internals
group endpointAlpha type 1
1 atoms in group endpointAlpha
group endpointOmega type 21
1 atoms in group endpointOmega
group endpoints subtract all internals
2 atoms in group endpoints

displace_atoms endpointAlpha move 0 ${dispDist} 0 units box
displace_atoms endpointAlpha move 0 0.2 0 units box
Displacing atoms ...
displace_atoms endpointOmega move 0 -${dispDist} 0 units box
displace_atoms endpointOmega move 0 -0.2 0 units box
Displacing atoms ...

variable k_restrain equal 200

fix restraint all arclengthrestraint WLC_21 ${k_restrain} ${totLength}
fix restraint all arclengthrestraint WLC_21 200 ${totLength}
fix restraint all arclengthrestraint WLC_21 200 10
fix_modify restraint energy yes

comm_modify cutoff 100

compute internalsTemp internals temp
thermo_style custom step pe ke fnorm epair epair ebond eangle edihed etotal

fix stationary endpoints setforce 0 0 0
min_modify dmax 10 norm max line backtrack # backtrack is necessary because minimizing points of restraint energy are degenerate
minimize 0 0 100000 100000
Neighbor list info ...
  update: every = 1 steps, delay = 0 steps, check = yes
  max neighbors/atom: 2000, page size: 100000
  master list distance cutoff = 0
  ghost atom cutoff = 100
  binsize = 1000, bins = 1 1 1
  1 neighbor lists, perpetual/occasional/extra = 1 0 0
  (1) fix arclengthrestraint, perpetual
      attributes: half, newton on
      pair build: half/bin/newton
      stencil: half/bin/3d
      bin: standard
WARNING: No pairwise cutoff or binsize set. Atom sorting therefore disabled. (../atom.cpp:2442)
Per MPI rank memory allocation (min/avg/max) = 8.621 | 8.621 | 8.621 Mbytes
   Step         PotEng         KinEng         Fnorm          E_pair         E_pair         E_bond        E_angle        E_dihed         TotEng    
         0   17.960672      0              2384.1641      0              0              0              17.798471      0              17.960672    
       153   17.719574      0              7.8564044      0              0              0              17.663893      0              17.719574    
Loop time of 0.0147574 on 1 procs for 153 steps with 21 atoms

99.9% CPU use with 1 MPI tasks x 1 OpenMP threads

Minimization stats:
  Stopping criterion = linesearch alpha is zero
  Energy initial, next-to-last, final = 
      17.9606721137221   17.7195740167331   17.7195740167331
  Force two-norm initial, final = 2384.1641 7.8564044
  Force max component initial, final = 1434.9739 3.7136091
  Final line search alpha, max atom move = 1.1641532e-10 4.32321e-10
  Iterations, force evaluations = 153 3380

MPI task timing breakdown:
Section |  min time  |  avg time  |  max time  |%varavg| %total
---------------------------------------------------------------
Pair    | 0          | 0          | 0          |   0.0 |  0.00
Bond    | 0.0043431  | 0.0043431  | 0.0043431  |   0.0 | 29.43
Neigh   | 0.0016246  | 0.0016246  | 0.0016246  |   0.0 | 11.01
Comm    | 0.00054383 | 0.00054383 | 0.00054383 |   0.0 |  3.69
Output  | 0          | 0          | 0          |   0.0 |  0.00
Modify  | 0.0022306  | 0.0022306  | 0.0022306  |   0.0 | 15.11
Other   |            | 0.006015   |            |       | 40.76

Nlocal:             21 ave          21 max          21 min
Histogram: 1 0 0 0 0 0 0 0 0 0
Nghost:              0 ave           0 max           0 min
Histogram: 1 0 0 0 0 0 0 0 0 0
Neighs:              0 ave           0 max           0 min
Histogram: 1 0 0 0 0 0 0 0 0 0

Total # of neighbors = 0
Ave neighs/atom = 0
Ave special neighs/atom = 5.4285714
Neighbor list builds = 743
Dangerous builds = 438
unfix stationary

reset_timestep 0
timestep 1e-6

fix integrate internals nvt temp 310.0 310.0 $(10.0*dt)
fix integrate internals nvt temp 310.0 310.0 9.999999999999999124e-06
velocity internals create 310.0 ${seed} dist gaussian
velocity internals create 310.0 1 dist gaussian


compute endForce endpointOmega reduce ave fy # Obtain force on endpoint
variable computedForce equal c_endForce # fix print cannot directly print out computes
thermo_style custom step c_endForce c_integrate_temp temp ke

neighbor 100.0 bin
run 0
WARNING: Communication cutoff 100 is shorter than a bond length based estimate of 101.5. This may lead to errors. (../comm.cpp:730)
Per MPI rank memory allocation (min/avg/max) = 7.496 | 7.496 | 7.496 Mbytes
   Step       c_endForce   c_integrate_temp      Temp          KinEng    
         0  -1.1774431      310            279            16.63292     
Loop time of 8.12e-07 on 1 procs for 0 steps with 21 atoms

123.2% CPU use with 1 MPI tasks x 1 OpenMP threads

MPI task timing breakdown:
Section |  min time  |  avg time  |  max time  |%varavg| %total
---------------------------------------------------------------
Pair    | 0          | 0          | 0          |   0.0 |  0.00
Bond    | 0          | 0          | 0          |   0.0 |  0.00
Neigh   | 0          | 0          | 0          |   0.0 |  0.00
Comm    | 0          | 0          | 0          |   0.0 |  0.00
Output  | 0          | 0          | 0          |   0.0 |  0.00
Modify  | 0          | 0          | 0          |   0.0 |  0.00
Other   |            | 8.12e-07   |            |       |100.00

Nlocal:             21 ave          21 max          21 min
Histogram: 1 0 0 0 0 0 0 0 0 0
Nghost:              0 ave           0 max           0 min
Histogram: 1 0 0 0 0 0 0 0 0 0
Neighs:              0 ave           0 max           0 min
Histogram: 1 0 0 0 0 0 0 0 0 0

Total # of neighbors = 0
Ave neighs/atom = 0
Ave special neighs/atom = 5.4285714
Neighbor list builds = 0
Dangerous builds = 0
velocity internals scale 310.0

variable sampFreq equal 10000000 # Sample force on endpoints every this-many timesteps.
variable numSamps equal 100 # Number of force samples to take.
variable numSteps equal "v_sampFreq * v_numSamps"
thermo ${sampFreq}
thermo 10000000

# Print out force on endpoint below
fix printForces all print ${sampFreq} "${computedForce}" file Out_Force_Extension/data/data_WLC_21_dispRatio_$(v_dispRatio:%.2f).txt screen no
fix printForces all print 10000000 "${computedForce}" file Out_Force_Extension/data/data_WLC_21_dispRatio_$(v_dispRatio:%.2f).txt screen no
fix printForces all print 10000000 "${computedForce}" file Out_Force_Extension/data/data_WLC_21_dispRatio_0.04.txt screen no

### Below is for validation purposes ###
compute blen all bond/local dist
compute end2end all reduce sum c_blen inputs local
variable totLen equal c_end2end

variable computedTemp equal c_integrate_temp
# variable sysTemp equal temp
# variable sysKE equal ke

variable validFile_end2end string "Out_Force_Extension/validation/end2end_WLC_21_Force_Extension_dispRatio_$(v_dispRatio:%.2f).txt"
Out_Force_Extension/validation/end2end_WLC_21_Force_Extension_dispRatio_0.04.txt
fix print_end2end all print ${sampFreq} "${totLen}" file ${validFile_end2end} screen no title "End-to-end arc length of WLC with 21 atoms"
fix print_end2end all print 10000000 "${totLen}" file ${validFile_end2end} screen no title "End-to-end arc length of WLC with 21 atoms"
fix print_end2end all print 10000000 "${totLen}" file Out_Force_Extension/validation/end2end_WLC_21_Force_Extension_dispRatio_0.04.txt screen no title "End-to-end arc length of WLC with 21 atoms"

variable validFile_internalsTemp string "Out_Force_Extension/validation/internalsTemp_WLC_21_Force_Extension_dispRatio_$(v_dispRatio:%.2f).txt"
Out_Force_Extension/validation/internalsTemp_WLC_21_Force_Extension_dispRatio_0.04.txt
fix print_internalsTemp all print ${sampFreq} "${computedTemp}" file ${validFile_internalsTemp} screen no title "Temperature (K) of internal atoms of WLC with 21 atoms"
fix print_internalsTemp all print 10000000 "${computedTemp}" file ${validFile_internalsTemp} screen no title "Temperature (K) of internal atoms of WLC with 21 atoms"
fix print_internalsTemp all print 10000000 "${computedTemp}" file Out_Force_Extension/validation/internalsTemp_WLC_21_Force_Extension_dispRatio_0.04.txt screen no title "Temperature (K) of internal atoms of WLC with 21 atoms"
### End of validation block ###


run ${numSteps}
run 1000000000
WARNING: Communication cutoff 100 is shorter than a bond length based estimate of 101.5. This may lead to errors. (../comm.cpp:730)
Per MPI rank memory allocation (min/avg/max) = 7.572 | 7.572 | 7.572 Mbytes
   Step       c_endForce   c_integrate_temp      Temp          KinEng    
         0  -1.1774431      310            279            16.63292     
  10000000  -4.5590899      397.14977      357.43479      21.308904    
  20000000  -3.5362292      255.89512      230.30561      13.729946    
  30000000  -4.0246286      351.50987      316.35888      18.860115    
  40000000  -3.4213071      282.94694      254.65225      15.181399    
  50000000  -2.2135699      317.57149      285.81434      17.039165    
  60000000   1.0413684      258.35755      232.52179      13.862066    
  70000000  -1.6579825      302.92887      272.63599      16.253522    
  80000000   0.10588438     342.45236      308.20713      18.374138    
  90000000   0.13226725     360.39573      324.35616      19.336882    
 100000000   3.3228765      350.43612      315.3925       18.802503    
 110000000   3.4776384      378.24701      340.42231      20.294685    
 120000000   4.9370839      479.86943      431.88249      25.747193    
 130000000  -0.13718434     391.74486      352.57038      21.018907    
 140000000   1.4046172      253.6207       228.25863      13.607912    
 150000000   4.3753487      219.7588       197.78292      11.791066    
 160000000   1.6091445      323.46189      291.1157       17.355212    
 170000000   2.637027       369.49912      332.54921      19.82532     
 180000000   2.1872534      275.15641      247.64077      14.763402    
 190000000  -2.376611       304.89281      274.40352      16.358896    
 200000000   1.9033866      287.25419      258.52877      15.412503    
 210000000   4.7029474      235.73729      212.16356      12.648385    
 220000000  -1.4520574      266.33217      239.69895      14.289941    
 230000000  -3.5758682      329.77438      296.79694      17.693906    
 240000000  -3.4067667      324.60081      292.14073      17.41632     
 250000000  -3.9892066      300.36839      270.33155      16.11614     
 260000000  -5.0462284      281.83338      253.65004      15.121652    
 270000000  -4.0089548      353.1284       317.81556      18.946956    
 280000000  -5.8146969      291.75658      262.58092      15.654077    
 290000000   0.92991396     251.44729      226.30256      13.491299    
 300000000   1.4148732      340.58426      306.52584      18.273906    
 310000000  -1.5830317      234.52064      211.06857      12.583106    
 320000000  -0.45879815     261.98662      235.78796      14.056782    
 330000000  -0.65770188     430.11396      387.10257      23.077584    
 340000000   1.2802121      316.141        284.5269       16.962413    
 350000000  -0.56295644     408.86464      367.97817      21.937461    
 360000000   2.1677436      256.01661      230.41495      13.736464    
 370000000   4.8532743      225.33274      202.79946      12.090134    
 380000000   1.923726       216.68691      195.01822      11.626246    
 390000000   0.62049553     347.13215      312.41893      18.62523     
 400000000   0.47284368     337.18261      303.46435      18.091392    
 410000000  -0.18617114     360.06047      324.05442      19.318893    
 420000000   1.0416464      265.37553      238.83797      14.238613    
 430000000   0.54323828     367.40833      330.6675       19.71314     
 440000000  -1.0250789      297.04565      267.34108      15.93786     
 450000000  -0.32397125     344.49038      310.04134      18.483487    
 460000000  -5.2278048      286.24173      257.61756      15.35818     
 470000000  -5.3339225      322.64616      290.38154      17.311444    
 480000000  -4.0608893      226.80202      204.12182      12.168967    
 490000000   5.2727265      256.22735      230.60461      13.747771    
 500000000   7.7170443      320.4125       288.37125      17.191598    
 510000000   7.030206       255.51192      229.96073      13.709385    
 520000000  -4.490273       333.79271      300.41343      17.909508    
 530000000   1.1939653      365.42554      328.88299      19.606754    
 540000000   7.4065918      184.83776      166.35398      9.9173926    
 550000000   6.2767988      378.30369      340.47332      20.297726    
 560000000   5.0315837      262.49331      236.24398      14.083969    
 570000000  -10.289416      276.6445       248.98005      14.843245    
 580000000  -3.8118039      255.08569      229.57712      13.686516    
 590000000  -4.5139861      292.39937      263.15943      15.688566    
 600000000  -0.82276652     333.35951      300.02356      17.886265    
 610000000   2.1268682      333.98146      300.58331      17.919635    
 620000000  -5.9056928      295.05876      265.55288      15.831254    
 630000000   5.647533       222.14814      199.93333      11.919265    
 640000000   4.2115143      249.95198      224.95678      13.411069    
 650000000  -4.4164108      302.98815      272.68934      16.256702    
 660000000   2.9193288      222.82448      200.54204      11.955554    
 670000000  -2.9648019      402.36619      362.12957      21.588789    
 680000000   3.1362818      334.01563      300.61407      17.921469    
 690000000   9.0183008      250.57689      225.5192       13.444598    
 700000000  -6.6772377      281.86366      253.67729      15.123277    
 710000000  -8.1822836      249.34815      224.41333      13.37867     
 720000000   8.1413503      313.03617      281.73255      16.795825    
 730000000  -5.4542239      413.37402      372.03662      22.17941     
 740000000   5.0122568      342.78594      308.50734      18.392036    
 750000000   2.4675135      328.88002      295.99202      17.64592     
 760000000   1.413029       309.46467      278.51821      16.604197    
 770000000   2.2159351      384.24202      345.81781      20.616344    
 780000000   2.4895083      237.53942      213.78548      12.745078    
 790000000   4.3059198      354.59529      319.13576      19.025662    
 800000000  -2.7665186      368.97231      332.07508      19.797055    
 810000000   0.5290677      163.67553      147.30798      8.7819419    
 820000000  -9.6153578      352.15407      316.93866      18.894679    
 830000000   11.870793      232.38058      209.14252      12.468283    
 840000000  -6.9972205      413.85569      372.47012      22.205254    
 850000000  -1.1556046      276.03001      248.42701      14.810275    
 860000000  -4.7584039      335.46601      301.91941      17.999288    
 870000000   6.3670831      301.60926      271.44834      16.182719    
 880000000  -0.086014042    458.2148       412.39332      24.585323    
 890000000  -1.3056072      391.8059       352.62531      21.022182    
 900000000   0.90133152     331.47788      298.33009      17.785307    
 910000000   0.99318953     251.89261      226.70335      13.515193    
 920000000  -0.87879561     359.75302      323.77772      19.302397    
 930000000   1.7312299      400.22826      360.20543      21.474079    
 940000000   1.2234659      285.1544       256.63896      15.29984     
 950000000   0.13159309     395.59974      356.03977      21.225738    
 960000000  -1.0043759      337.62707      303.86436      18.115239    
 970000000  -2.5664829      386.36784      347.73106      20.730404    
 980000000   0.87242724     280.06348      252.05713      15.026689    
 990000000  -2.8982906      418.04245      376.2382       22.429892    
1000000000   0.81145334     207.60801      186.8472       11.139121    
Loop time of 2566.65 on 1 procs for 1000000000 steps with 21 atoms

Performance: 0.034 ns/day, 712.958 hours/ns, 389613.037 timesteps/s, 8.182 Matom-step/s
100.0% CPU use with 1 MPI tasks x 1 OpenMP threads

MPI task timing breakdown:
Section |  min time  |  avg time  |  max time  |%varavg| %total
---------------------------------------------------------------
Pair    | 0          | 0          | 0          |   0.0 |  0.00
Bond    | 994.23     | 994.23     | 994.23     |   0.0 | 38.74
Neigh   | 0          | 0          | 0          |   0.0 |  0.00
Comm    | 68.765     | 68.765     | 68.765     |   0.0 |  2.68
Output  | 0.0019344  | 0.0019344  | 0.0019344  |   0.0 |  0.00
Modify  | 1208.6     | 1208.6     | 1208.6     |   0.0 | 47.09
Other   |            | 295.1      |            |       | 11.50

Nlocal:             21 ave          21 max          21 min
Histogram: 1 0 0 0 0 0 0 0 0 0
Nghost:              0 ave           0 max           0 min
Histogram: 1 0 0 0 0 0 0 0 0 0
Neighs:              0 ave           0 max           0 min
Histogram: 1 0 0 0 0 0 0 0 0 0

Total # of neighbors = 0
Ave neighs/atom = 0
Ave special neighs/atom = 5.4285714
Neighbor list builds = 0
Dangerous builds = 0
Total wall time: 0:42:46
