
variable totLength equal 10
variable dispDist equal "v_totLength * v_dispRatio / 2"

variable seed equal 1
units real
boundary p p p

atom_style molecular

region main block -500 500 -500 500 -500 500

create_box 41 main bond/types 40 angle/types 39 extra/bond/per/atom 2 extra/angle/per/atom 3 extra/special/per/atom 6
Created orthogonal box = (-500 -500 -500) to (500 500 500)
  1 by 1 by 1 MPI processor grid

molecule WLC_41 Structures/Production/relaxed_WLC_41.txt
Read molecule template WLC_41:
# Relaxed Production Model for Worm-Like Chain
  1 molecules
  0 fragments
  41 atoms with max type 41
  40 bonds with max type 40
  39 angles with max type 39
  0 dihedrals with max type 0
  0 impropers with max type 0
bond_style harmonic
angle_style harmonic
dihedral_style none

create_atoms 0 single 0 0 0 mol WLC_41 ${seed} rotate 0 0 0 1
create_atoms 0 single 0 0 0 mol WLC_41 1 rotate 0 0 0 1
Created 41 atoms
  using lattice units in orthogonal box = (-500 -500 -500) to (500 500 500)
  create_atoms CPU = 0.001 seconds

read_data Structures/Coeffs/coeffs_WLC_41.data add merge
Reading data file ...
  orthogonal box = (-500 -500 -500) to (500 500 500)
  1 by 1 by 1 MPI processor grid
Finding 1-2 1-3 1-4 neighbors ...
  special bond factors lj:    0        0        0       
  special bond factors coul:  0        0        0       
     3 = max # of 1-2 neighbors
     6 = max # of 1-3 neighbors
    18 = max # of 1-4 neighbors
    13 = max # of special neighbors
  special bonds CPU = 0.000 seconds
  read_data CPU = 0.012 seconds
bond_coeff * 0 0.25

group internals type 2:40
39 atoms in group internals
group endpointAlpha type 1
1 atoms in group endpointAlpha
group endpointOmega type 41
1 atoms in group endpointOmega
group endpoints subtract all internals
2 atoms in group endpoints

displace_atoms endpointAlpha move 0 ${dispDist} 0 units box
displace_atoms endpointAlpha move 0 0.1 0 units box
Displacing atoms ...
displace_atoms endpointOmega move 0 -${dispDist} 0 units box
displace_atoms endpointOmega move 0 -0.1 0 units box
Displacing atoms ...

variable k_restrain equal 400

fix restraint all arclengthrestraint WLC_41 ${k_restrain} ${totLength}
fix restraint all arclengthrestraint WLC_41 400 ${totLength}
fix restraint all arclengthrestraint WLC_41 400 10
fix_modify restraint energy yes

comm_modify cutoff 100

compute internalsTemp internals temp
thermo_style custom step pe ke fnorm epair epair ebond eangle edihed etotal

fix stationary endpoints setforce 0 0 0
min_modify dmax 10 norm max line backtrack # backtrack is necessary because minimizing points of restraint energy are degenerate
minimize 0 0 100000 100000
Neighbor list info ...
  update: every = 1 steps, delay = 0 steps, check = yes
  max neighbors/atom: 2000, page size: 100000
  master list distance cutoff = 0
  ghost atom cutoff = 100
  binsize = 1000, bins = 1 1 1
  1 neighbor lists, perpetual/occasional/extra = 1 0 0
  (1) fix arclengthrestraint, perpetual
      attributes: half, newton on
      pair build: half/bin/newton
      stencil: half/bin/3d
      bin: standard
WARNING: No pairwise cutoff or binsize set. Atom sorting therefore disabled. (../atom.cpp:2442)
Per MPI rank memory allocation (min/avg/max) = 8.622 | 8.622 | 8.622 Mbytes
   Step         PotEng         KinEng         Fnorm          E_pair         E_pair         E_bond        E_angle        E_dihed         TotEng    
         0   100.51637      0              2050576.1      0              0              0              100.26133      0              100.51637    
        51   99.795497      0              4573.4906      0              0              0              99.53937       0              99.795497    
Loop time of 0.0108883 on 1 procs for 51 steps with 41 atoms

100.0% CPU use with 1 MPI tasks x 1 OpenMP threads

Minimization stats:
  Stopping criterion = energy tolerance
  Energy initial, next-to-last, final = 
      100.516365012582   99.7954965436314   99.7954965436314
  Force two-norm initial, final = 2050576.1 4573.4906
  Force max component initial, final = 1436834.1 2983.423
  Final line search alpha, max atom move = 3.8106174e-16 1.1368684e-12
  Iterations, force evaluations = 51 1596

MPI task timing breakdown:
Section |  min time  |  avg time  |  max time  |%varavg| %total
---------------------------------------------------------------
Pair    | 0          | 0          | 0          |   0.0 |  0.00
Bond    | 0.0039678  | 0.0039678  | 0.0039678  |   0.0 | 36.44
Neigh   | 0.0012295  | 0.0012295  | 0.0012295  |   0.0 | 11.29
Comm    | 0.00027823 | 0.00027823 | 0.00027823 |   0.0 |  2.56
Output  | 0          | 0          | 0          |   0.0 |  0.00
Modify  | 0.0015846  | 0.0015846  | 0.0015846  |   0.0 | 14.55
Other   |            | 0.003828   |            |       | 35.16

Nlocal:             41 ave          41 max          41 min
Histogram: 1 0 0 0 0 0 0 0 0 0
Nghost:              0 ave           0 max           0 min
Histogram: 1 0 0 0 0 0 0 0 0 0
Neighs:              0 ave           0 max           0 min
Histogram: 1 0 0 0 0 0 0 0 0 0

Total # of neighbors = 0
Ave neighs/atom = 0
Ave special neighs/atom = 5.7073171
Neighbor list builds = 255
Dangerous builds = 154
unfix stationary

reset_timestep 0
timestep 1e-6

fix integrate internals nvt temp 310.0 310.0 $(10.0*dt)
fix integrate internals nvt temp 310.0 310.0 9.999999999999999124e-06
velocity internals create 310.0 ${seed} dist gaussian
velocity internals create 310.0 1 dist gaussian


compute endForce endpointOmega reduce ave fy # Obtain force on endpoint
variable computedForce equal c_endForce # fix print cannot directly print out computes
thermo_style custom step c_endForce c_integrate_temp temp ke

neighbor 100.0 bin
run 0
WARNING: Communication cutoff 100 is shorter than a bond length based estimate of 100.375. This may lead to errors. (../comm.cpp:730)
Per MPI rank memory allocation (min/avg/max) = 7.497 | 7.497 | 7.497 Mbytes
   Step       c_endForce   c_integrate_temp      Temp          KinEng    
         0   7.6870773      310            294.5          35.113942    
Loop time of 9.61e-07 on 1 procs for 0 steps with 41 atoms

0.0% CPU use with 1 MPI tasks x 1 OpenMP threads

MPI task timing breakdown:
Section |  min time  |  avg time  |  max time  |%varavg| %total
---------------------------------------------------------------
Pair    | 0          | 0          | 0          |   0.0 |  0.00
Bond    | 0          | 0          | 0          |   0.0 |  0.00
Neigh   | 0          | 0          | 0          |   0.0 |  0.00
Comm    | 0          | 0          | 0          |   0.0 |  0.00
Output  | 0          | 0          | 0          |   0.0 |  0.00
Modify  | 0          | 0          | 0          |   0.0 |  0.00
Other   |            | 9.61e-07   |            |       |100.00

Nlocal:             41 ave          41 max          41 min
Histogram: 1 0 0 0 0 0 0 0 0 0
Nghost:              0 ave           0 max           0 min
Histogram: 1 0 0 0 0 0 0 0 0 0
Neighs:              0 ave           0 max           0 min
Histogram: 1 0 0 0 0 0 0 0 0 0

Total # of neighbors = 0
Ave neighs/atom = 0
Ave special neighs/atom = 5.7073171
Neighbor list builds = 0
Dangerous builds = 0
velocity internals scale 310.0

variable sampFreq equal 10000000 # Sample force on endpoints every this-many timesteps.
variable numSamps equal 100 # Number of force samples to take.
variable numSteps equal "v_sampFreq * v_numSamps"
thermo ${sampFreq}
thermo 10000000

# Print out force on endpoint below
fix printForces all print ${sampFreq} "${computedForce}" file Out_Force_Extension/data/data_WLC_41_dispRatio_$(v_dispRatio:%.2f).txt screen no
fix printForces all print 10000000 "${computedForce}" file Out_Force_Extension/data/data_WLC_41_dispRatio_$(v_dispRatio:%.2f).txt screen no
fix printForces all print 10000000 "${computedForce}" file Out_Force_Extension/data/data_WLC_41_dispRatio_0.02.txt screen no

### Below is for validation purposes ###
compute blen all bond/local dist
compute end2end all reduce sum c_blen inputs local
variable totLen equal c_end2end

variable computedTemp equal c_integrate_temp
# variable sysTemp equal temp
# variable sysKE equal ke

variable validFile_end2end string "Out_Force_Extension/validation/end2end_WLC_41_Force_Extension_dispRatio_$(v_dispRatio:%.2f).txt"
Out_Force_Extension/validation/end2end_WLC_41_Force_Extension_dispRatio_0.02.txt
fix print_end2end all print ${sampFreq} "${totLen}" file ${validFile_end2end} screen no title "End-to-end arc length of WLC with 41 atoms"
fix print_end2end all print 10000000 "${totLen}" file ${validFile_end2end} screen no title "End-to-end arc length of WLC with 41 atoms"
fix print_end2end all print 10000000 "${totLen}" file Out_Force_Extension/validation/end2end_WLC_41_Force_Extension_dispRatio_0.02.txt screen no title "End-to-end arc length of WLC with 41 atoms"

variable validFile_internalsTemp string "Out_Force_Extension/validation/internalsTemp_WLC_41_Force_Extension_dispRatio_$(v_dispRatio:%.2f).txt"
Out_Force_Extension/validation/internalsTemp_WLC_41_Force_Extension_dispRatio_0.02.txt
fix print_internalsTemp all print ${sampFreq} "${computedTemp}" file ${validFile_internalsTemp} screen no title "Temperature (K) of internal atoms of WLC with 41 atoms"
fix print_internalsTemp all print 10000000 "${computedTemp}" file ${validFile_internalsTemp} screen no title "Temperature (K) of internal atoms of WLC with 41 atoms"
fix print_internalsTemp all print 10000000 "${computedTemp}" file Out_Force_Extension/validation/internalsTemp_WLC_41_Force_Extension_dispRatio_0.02.txt screen no title "Temperature (K) of internal atoms of WLC with 41 atoms"
### End of validation block ###


run ${numSteps}
run 1000000000
WARNING: Communication cutoff 100 is shorter than a bond length based estimate of 100.375. This may lead to errors. (../comm.cpp:730)
Per MPI rank memory allocation (min/avg/max) = 7.573 | 7.573 | 7.573 Mbytes
   Step       c_endForce   c_integrate_temp      Temp          KinEng    
         0   7.6870773      310            294.5          35.113942    
  10000000   7.1964479      386.47803      367.15413      43.776669    
  20000000   10.842424      307.34359      291.97641      34.813049    
  30000000  -6.4615748      400.33393      380.31723      45.346137    
  40000000  -16.498618      329.59134      313.11177      37.333068    
  50000000  -22.194506      309.06352      293.61034      35.007866    
  60000000  -8.3925198      315.80622      300.01591      35.771618    
  70000000  -16.021309      284.39395      270.17426      32.213526    
  80000000  -14.572215      287.47792      273.10402      32.562848    
  90000000   7.3187643      315.84285      300.0507       35.775766    
 100000000   5.7867601      301.92696      286.83061      34.199502    
 110000000   9.1416735      308.50031      293.0753       34.944072    
 120000000   8.6316232      257.45153      244.57895      29.161736    
 130000000  -5.479465       312.48339      296.85922      35.395238    
 140000000   4.0128174      351.77021      334.1817       39.845286    
 150000000  -10.435005      288.90387      274.45867      32.724367    
 160000000   2.1260715      332.47401      315.85031      37.659591    
 170000000  -6.6066498      361.82725      343.73589      40.984456    
 180000000  -19.434551      235.96041      224.16239      26.72742     
 190000000  -3.3777686      306.63118      291.29962      34.732353    
 200000000   6.9452029      269.58897      256.10952      30.536554    
 210000000  -1.6059931      311.47051      295.89698      35.280508    
 220000000   6.0442849      319.88579      303.8915       36.233714    
 230000000  -1.768477       282.73777      268.60089      32.025929    
 240000000   9.4235077      314.35905      298.6411       35.607696    
 250000000  -4.4952032      269.02052      255.5695       30.472165    
 260000000  -2.8496655      278.13302      264.22637      31.504345    
 270000000   11.903304      275.05298      261.30033      31.155467    
 280000000  -10.715401      268.76784      255.32945      30.443543    
 290000000   1.594454       364.56053      346.33251      41.294057    
 300000000  -29.924177      265.15398      251.89628      30.034198    
 310000000   4.0228455      301.1168       286.06096      34.107735    
 320000000   6.8528156      244.80034      232.56032      27.728726    
 330000000   15.360371      361.86914      343.77569      40.989201    
 340000000   5.336633       320.21784      304.20694      36.271325    
 350000000  -1.3723738      263.92763      250.73125      29.895289    
 360000000   8.513367       309.45563      293.98285      35.052281    
 370000000   7.225883       335.3471       318.57975      37.985029    
 380000000   0.67200362     279.51513      265.53937      31.660897    
 390000000   3.0306273      360.43412      342.41242      40.826655    
 400000000   7.5308713      288.96325      274.51508      32.731093    
 410000000  -1.8077945      340.51681      323.49097      38.570605    
 420000000   2.1640266      244.02284      231.8217       27.640658    
 430000000   5.9075076      241.35148      229.28391      27.338071    
 440000000  -4.0699434      353.31658      335.65075      40.020445    
 450000000  -4.2579807      294.92613      280.17983      33.406514    
 460000000  -0.37013473     252.14838      239.54096      28.561044    
 470000000  -11.468134      299.37918      284.41023      33.910914    
 480000000  -6.1381858      293.40073      278.73069      33.23373     
 490000000   0.38947329     325.81154      309.52096      36.904927    
 500000000   6.975232       298.66059      283.72756      33.829519    
 510000000  -0.28521524     283.30497      269.13972      32.090176    
 520000000  -15.139228      298.04384      283.14165      33.759659    
 530000000  -3.6993551      311.37142      295.80285      35.269285    
 540000000   5.5367381      366.28817      347.97376      41.489747    
 550000000  -18.829323      272.92544      259.27916      30.914478    
 560000000   11.034021      295.46734      280.69398      33.467817    
 570000000   12.669709      237.37652      225.5077       26.887825    
 580000000  -1.2020977      436.79343      414.95376      49.475933    
 590000000   0.012732596    262.15418      249.04648      29.69441     
 600000000  -0.52179687     243.70193      231.51683      27.604308    
 610000000  -3.3054818      258.637        245.70515      29.296015    
 620000000  -1.3260848      335.24391      318.48172      37.97334     
 630000000  -11.727964      286.42497      272.10372      32.44358     
 640000000  -2.4695152      290.81962      276.27863      32.941365    
 650000000   3.9271275      310.22963      294.71815      35.139953    
 660000000  -5.0611239      329.74737      313.26         37.350743    
 670000000  -3.8143272      328.86399      312.42079      37.250681    
 680000000  -8.0796978      328.80055      312.36053      37.243496    
 690000000  -20.183298      292.13735      277.53048      33.090626    
 700000000  -2.6475922      358.99641      341.04659      40.663804    
 710000000   17.324645      367.21646      348.85564      41.594896    
 720000000   15.668212      375.42777      356.65638      42.524997    
 730000000   5.3613469      360.65062      342.61809      40.851177    
 740000000  -20.390201      295.93576      281.13897      33.520875    
 750000000  -25.291528      296.17205      281.36345      33.54764     
 760000000   10.565606      241.14226      229.08515      27.314373    
 770000000   3.1450796      304.65028      289.41776      34.507975    
 780000000   11.074187      422.5334       401.40673      47.860689    
 790000000  -0.23115087     306.05784      290.75495      34.667411    
 800000000   13.259326      316.93398      301.08728      35.89936     
 810000000   5.3219452      302.92691      287.78056      34.312767    
 820000000  -19.235458      390.69503      371.16028      44.254331    
 830000000   5.8811309      292.55898      277.93103      33.138384    
 840000000   3.6524058      257.34416      244.47695      29.149574    
 850000000  -15.917558      282.50742      268.38205      31.999837    
 860000000  -15.087482      314.22662      298.51529      35.592695    
 870000000  -2.2097301      333.20721      316.54685      37.742642    
 880000000  -3.4158554      292.52936      277.90289      33.13503     
 890000000   4.2518944      284.64858      270.41615      32.242367    
 900000000  -1.9833201      398.20221      378.2921       45.104676    
 910000000  -24.572596      350.87633      333.33251      39.744036    
 920000000  -16.09359       283.80773      269.61735      32.147124    
 930000000  -5.4622066      300.407        285.38665      34.027336    
 940000000  -2.1725559      412.22425      391.61304      46.692963    
 950000000  -3.9163854      280.68312      266.64897      31.793197    
 960000000  -2.6139495      280.15162      266.14404      31.732993    
 970000000  -8.3420269      259.6812       246.69714      29.414293    
 980000000  -11.133927      294.23344      279.52177      33.328052    
 990000000  -5.5867451      256.83129      243.98973      29.091481    
1000000000   1.162975       209.81068      199.32015      23.76542     
Loop time of 4156.31 on 1 procs for 1000000000 steps with 41 atoms

Performance: 0.021 ns/day, 1154.530 hours/ns, 240598.100 timesteps/s, 9.865 Matom-step/s
100.0% CPU use with 1 MPI tasks x 1 OpenMP threads

MPI task timing breakdown:
Section |  min time  |  avg time  |  max time  |%varavg| %total
---------------------------------------------------------------
Pair    | 0          | 0          | 0          |   0.0 |  0.00
Bond    | 1932.9     | 1932.9     | 1932.9     |   0.0 | 46.51
Neigh   | 0          | 0          | 0          |   0.0 |  0.00
Comm    | 78.43      | 78.43      | 78.43      |   0.0 |  1.89
Output  | 0.0089008  | 0.0089008  | 0.0089008  |   0.0 |  0.00
Modify  | 1790.2     | 1790.2     | 1790.2     |   0.0 | 43.07
Other   |            | 354.7      |            |       |  8.54

Nlocal:             41 ave          41 max          41 min
Histogram: 1 0 0 0 0 0 0 0 0 0
Nghost:              0 ave           0 max           0 min
Histogram: 1 0 0 0 0 0 0 0 0 0
Neighs:              0 ave           0 max           0 min
Histogram: 1 0 0 0 0 0 0 0 0 0

Total # of neighbors = 0
Ave neighs/atom = 0
Ave special neighs/atom = 5.7073171
Neighbor list builds = 0
Dangerous builds = 0
Total wall time: 1:09:16
