
variable totLength equal 10
variable dispDist equal "v_totLength * v_dispRatio / 2"

variable seed equal 1
units real
boundary p p p

atom_style molecular

region main block -500 500 -500 500 -500 500

create_box 11 main bond/types 10 angle/types 9 extra/bond/per/atom 2 extra/angle/per/atom 3 extra/special/per/atom 6
Created orthogonal box = (-500 -500 -500) to (500 500 500)
  1 by 1 by 1 MPI processor grid

molecule WLC_11 Structures/Production/relaxed_WLC_11.txt
Read molecule template WLC_11:
# Relaxed Production Model for Worm-Like Chain
  1 molecules
  0 fragments
  11 atoms with max type 11
  10 bonds with max type 10
  9 angles with max type 9
  0 dihedrals with max type 0
  0 impropers with max type 0
bond_style harmonic
angle_style harmonic
dihedral_style none

create_atoms 0 single 0 0 0 mol WLC_11 ${seed} rotate 0 0 0 1
create_atoms 0 single 0 0 0 mol WLC_11 1 rotate 0 0 0 1
Created 11 atoms
  using lattice units in orthogonal box = (-500 -500 -500) to (500 500 500)
  create_atoms CPU = 0.001 seconds

read_data Structures/Coeffs/coeffs_WLC_11.data add merge
Reading data file ...
  orthogonal box = (-500 -500 -500) to (500 500 500)
  1 by 1 by 1 MPI processor grid
Finding 1-2 1-3 1-4 neighbors ...
  special bond factors lj:    0        0        0       
  special bond factors coul:  0        0        0       
     3 = max # of 1-2 neighbors
     6 = max # of 1-3 neighbors
    18 = max # of 1-4 neighbors
    13 = max # of special neighbors
  special bonds CPU = 0.000 seconds
  read_data CPU = 0.000 seconds
bond_coeff * 0 1

group internals type 2:10
9 atoms in group internals
group endpointAlpha type 1
1 atoms in group endpointAlpha
group endpointOmega type 11
1 atoms in group endpointOmega
group endpoints subtract all internals
2 atoms in group endpoints

displace_atoms endpointAlpha move 0 ${dispDist} 0 units box
displace_atoms endpointAlpha move 0 0.25 0 units box
Displacing atoms ...
displace_atoms endpointOmega move 0 -${dispDist} 0 units box
displace_atoms endpointOmega move 0 -0.25 0 units box
Displacing atoms ...

variable k_restrain equal 100

fix restraint all arclengthrestraint WLC_11 ${k_restrain} ${totLength}
fix restraint all arclengthrestraint WLC_11 100 ${totLength}
fix restraint all arclengthrestraint WLC_11 100 10
fix_modify restraint energy yes

comm_modify cutoff 100

compute internalsTemp internals temp
thermo_style custom step pe ke fnorm epair epair ebond eangle edihed etotal

fix stationary endpoints setforce 0 0 0
min_modify dmax 10 norm max line backtrack # backtrack is necessary because minimizing points of restraint energy are degenerate
minimize 0 0 100000 100000
Neighbor list info ...
  update: every = 1 steps, delay = 0 steps, check = yes
  max neighbors/atom: 2000, page size: 100000
  master list distance cutoff = 0
  ghost atom cutoff = 100
  binsize = 1000, bins = 1 1 1
  1 neighbor lists, perpetual/occasional/extra = 1 0 0
  (1) fix arclengthrestraint, perpetual
      attributes: half, newton on
      pair build: half/bin/newton
      stencil: half/bin/3d
      bin: standard
WARNING: No pairwise cutoff or binsize set. Atom sorting therefore disabled. (../atom.cpp:2442)
Per MPI rank memory allocation (min/avg/max) = 8.621 | 8.621 | 8.621 Mbytes
   Step         PotEng         KinEng         Fnorm          E_pair         E_pair         E_bond        E_angle        E_dihed         TotEng    
         0   1.8544679      0              458.43817      0              0              0              1.777558       0              1.8544679    
       142   1.7684962      0              0.34652483     0              0              0              1.7675237      0              1.7684962    
Loop time of 0.00581028 on 1 procs for 142 steps with 11 atoms

98.3% CPU use with 1 MPI tasks x 1 OpenMP threads

Minimization stats:
  Stopping criterion = energy tolerance
  Energy initial, next-to-last, final = 
      1.85446791423181    1.7684961533642    1.7684961533642
  Force two-norm initial, final = 458.43817 0.34652483
  Force max component initial, final = 309.19273 0.16929333
  Final line search alpha, max atom move = 5.9604645e-08 1.0090669e-08
  Iterations, force evaluations = 142 2397

MPI task timing breakdown:
Section |  min time  |  avg time  |  max time  |%varavg| %total
---------------------------------------------------------------
Pair    | 0          | 0          | 0          |   0.0 |  0.00
Bond    | 0.0015814  | 0.0015814  | 0.0015814  |   0.0 | 27.22
Neigh   | 0.0004623  | 0.0004623  | 0.0004623  |   0.0 |  7.96
Comm    | 0.00032478 | 0.00032478 | 0.00032478 |   0.0 |  5.59
Output  | 0          | 0          | 0          |   0.0 |  0.00
Modify  | 0.00093064 | 0.00093064 | 0.00093064 |   0.0 | 16.02
Other   |            | 0.002511   |            |       | 43.22

Nlocal:             11 ave          11 max          11 min
Histogram: 1 0 0 0 0 0 0 0 0 0
Nghost:              0 ave           0 max           0 min
Histogram: 1 0 0 0 0 0 0 0 0 0
Neighs:              0 ave           0 max           0 min
Histogram: 1 0 0 0 0 0 0 0 0 0

Total # of neighbors = 0
Ave neighs/atom = 0
Ave special neighs/atom = 4.9090909
Neighbor list builds = 431
Dangerous builds = 228
unfix stationary

reset_timestep 0
timestep 1e-6

fix integrate internals nvt temp 310.0 310.0 $(10.0*dt)
fix integrate internals nvt temp 310.0 310.0 9.999999999999999124e-06
velocity internals create 310.0 ${seed} dist gaussian
velocity internals create 310.0 1 dist gaussian


compute endForce endpointOmega reduce ave fy # Obtain force on endpoint
variable computedForce equal c_endForce # fix print cannot directly print out computes
thermo_style custom step c_endForce c_integrate_temp temp ke

neighbor 100.0 bin
run 0
WARNING: Communication cutoff 100 is shorter than a bond length based estimate of 101.5. This may lead to errors. (../comm.cpp:730)
Per MPI rank memory allocation (min/avg/max) = 7.496 | 7.496 | 7.496 Mbytes
   Step       c_endForce   c_integrate_temp      Temp          KinEng    
         0  -0.16835639     310            248            7.3924089    
Loop time of 9.42e-07 on 1 procs for 0 steps with 11 atoms

106.2% CPU use with 1 MPI tasks x 1 OpenMP threads

MPI task timing breakdown:
Section |  min time  |  avg time  |  max time  |%varavg| %total
---------------------------------------------------------------
Pair    | 0          | 0          | 0          |   0.0 |  0.00
Bond    | 0          | 0          | 0          |   0.0 |  0.00
Neigh   | 0          | 0          | 0          |   0.0 |  0.00
Comm    | 0          | 0          | 0          |   0.0 |  0.00
Output  | 0          | 0          | 0          |   0.0 |  0.00
Modify  | 0          | 0          | 0          |   0.0 |  0.00
Other   |            | 9.42e-07   |            |       |100.00

Nlocal:             11 ave          11 max          11 min
Histogram: 1 0 0 0 0 0 0 0 0 0
Nghost:              0 ave           0 max           0 min
Histogram: 1 0 0 0 0 0 0 0 0 0
Neighs:              0 ave           0 max           0 min
Histogram: 1 0 0 0 0 0 0 0 0 0

Total # of neighbors = 0
Ave neighs/atom = 0
Ave special neighs/atom = 4.9090909
Neighbor list builds = 0
Dangerous builds = 0
velocity internals scale 310.0

variable sampFreq equal 10000000 # Sample force on endpoints every this-many timesteps.
variable numSamps equal 100 # Number of force samples to take.
variable numSteps equal "v_sampFreq * v_numSamps"
thermo ${sampFreq}
thermo 10000000

# Print out force on endpoint below
fix printForces all print ${sampFreq} "${computedForce}" file Out_Force_Extension/data/data_WLC_11_dispRatio_$(v_dispRatio:%.2f).txt screen no
fix printForces all print 10000000 "${computedForce}" file Out_Force_Extension/data/data_WLC_11_dispRatio_$(v_dispRatio:%.2f).txt screen no
fix printForces all print 10000000 "${computedForce}" file Out_Force_Extension/data/data_WLC_11_dispRatio_0.05.txt screen no

### Below is for validation purposes ###
compute blen all bond/local dist
compute end2end all reduce sum c_blen inputs local
variable totLen equal c_end2end

variable computedTemp equal c_integrate_temp
# variable sysTemp equal temp
# variable sysKE equal ke

variable validFile_end2end string "Out_Force_Extension/validation/end2end_WLC_11_Force_Extension_dispRatio_$(v_dispRatio:%.2f).txt"
Out_Force_Extension/validation/end2end_WLC_11_Force_Extension_dispRatio_0.05.txt
fix print_end2end all print ${sampFreq} "${totLen}" file ${validFile_end2end} screen no title "End-to-end arc length of WLC with 11 atoms"
fix print_end2end all print 10000000 "${totLen}" file ${validFile_end2end} screen no title "End-to-end arc length of WLC with 11 atoms"
fix print_end2end all print 10000000 "${totLen}" file Out_Force_Extension/validation/end2end_WLC_11_Force_Extension_dispRatio_0.05.txt screen no title "End-to-end arc length of WLC with 11 atoms"

variable validFile_internalsTemp string "Out_Force_Extension/validation/internalsTemp_WLC_11_Force_Extension_dispRatio_$(v_dispRatio:%.2f).txt"
Out_Force_Extension/validation/internalsTemp_WLC_11_Force_Extension_dispRatio_0.05.txt
fix print_internalsTemp all print ${sampFreq} "${computedTemp}" file ${validFile_internalsTemp} screen no title "Temperature (K) of internal atoms of WLC with 11 atoms"
fix print_internalsTemp all print 10000000 "${computedTemp}" file ${validFile_internalsTemp} screen no title "Temperature (K) of internal atoms of WLC with 11 atoms"
fix print_internalsTemp all print 10000000 "${computedTemp}" file Out_Force_Extension/validation/internalsTemp_WLC_11_Force_Extension_dispRatio_0.05.txt screen no title "Temperature (K) of internal atoms of WLC with 11 atoms"
### End of validation block ###


run ${numSteps}
run 1000000000
WARNING: Communication cutoff 100 is shorter than a bond length based estimate of 101.5. This may lead to errors. (../comm.cpp:730)
Per MPI rank memory allocation (min/avg/max) = 7.572 | 7.572 | 7.572 Mbytes
   Step       c_endForce   c_integrate_temp      Temp          KinEng    
         0  -0.16835639     310            248            7.3924089    
  10000000  -0.19709366     270.8287       216.66296      6.4583112    
  20000000  -0.18143304     332.35737      265.8859       7.9255536    
  30000000   0.09349347     209.24388      167.3951       4.98973      
  40000000  -0.31076849     293.4668       234.77344      6.9981504    
  50000000  -0.28850776     276.44126      221.15301      6.5921511    
  60000000   0.49634504     284.13663      227.3093       6.7756586    
  70000000   1.2210752      345.76406      276.61125      8.2452559    
  80000000   2.2807917      458.03895      366.43116      10.922617    
  90000000   0.43788306     475.07047      380.05637      11.328759    
 100000000   0.75380641     340.80466      272.64373      8.1269917    
 110000000   2.4230839      386.60611      309.28489      9.2191951    
 120000000   1.7306997      377.96991      302.37592      9.0132519    
 130000000   1.3770076      404.02488      323.2199       9.6345713    
 140000000  -0.35224342     335.87717      268.70174      8.0094883    
 150000000  -0.47784591     375.39688      300.3175       8.9518943    
 160000000   1.0537289      309.06417      247.25133      7.3700926    
 170000000   1.5030721      239.52394      191.61915      5.711803     
 180000000   1.2419661      265.33619      212.26895      6.3273342    
 190000000   1.1846332      215.04355      172.03484      5.1280319    
 200000000   0.54509817     262.09496      209.67596      6.2500422    
 210000000  -0.88417437     324.21711      259.37369      7.7314371    
 220000000  -0.60861538     341.63729      273.30983      8.1468469    
 230000000  -0.59928145     269.93039      215.94432      6.4368899    
 240000000   2.1124887      308.16075      246.5286       7.3485493    
 250000000   1.3105695      266.74742      213.39793      6.360987     
 260000000  -4.3433462      275.85231      220.68185      6.5781067    
 270000000  -4.0122576      253.84522      203.07617      6.053315     
 280000000  -0.75607784     300.40491      240.32392      7.1635997    
 290000000   4.0820654      300.89995      240.71996      7.1754048    
 300000000  -1.3554794      535.74314      428.59451      12.775588    
 310000000  -0.52697669     341.18997      272.95198      8.13618      
 320000000  -0.64957069     339.58837      271.67069      8.0979874    
 330000000   0.69492441     185.18196      148.14557      4.415938     
 340000000   2.1412324      283.61065      226.88852      6.7631157    
 350000000   2.064931       494.9879       395.99032      11.803719    
 360000000   1.1092614      263.09858      210.47886      6.273975     
 370000000   0.84288902     376.0651       300.85208      8.967829     
 380000000   0.89078789     311.76638      249.4131       7.4345308    
 390000000   1.4826842      109.90283      87.922262      2.6207956    
 400000000   1.5453088      454.10186      363.28148      10.828731    
 410000000   1.1103702      562.46055      449.96844      13.412704    
 420000000   0.29265028     300.02915      240.02332      7.1546393    
 430000000   0.72976787     300.41928      240.33542      7.1639425    
 440000000   0.65110699     177.85607      142.28485      4.2412412    
 450000000  -2.8581609      342.80753      274.24602      8.174753     
 460000000  -3.248302       187.03028      149.62422      4.4600139    
 470000000   0.89675698     359.15809      287.32648      8.5646565    
 480000000   1.4762539      357.73078      286.18463      8.5306201    
 490000000  -0.90526689     296.37594      237.10076      7.0675231    
 500000000  -1.5235624      484.26195      387.40956      11.547943    
 510000000   0.81250639     302.99452      242.39561      7.2253528    
 520000000   1.8519483      329.85103      263.88082      7.8657862    
 530000000   0.94136358     416.75181      333.40145      9.9380638    
 540000000  -0.1632707      162.71269      130.17015      3.880125     
 550000000  -1.0012423      186.63744      149.30995      4.4506461    
 560000000  -0.91417582     359.62854      287.70283      8.5758748    
 570000000   0.382833       305.83368      244.66695      7.293057     
 580000000  -0.7904794      192.59363      154.0749       4.5926802    
 590000000  -1.8691598      228.78317      183.02654      5.4556735    
 600000000  -2.0974398      329.79163      263.8333       7.8643695    
 610000000  -3.4879395      245.977        196.7816       5.8656858    
 620000000  -2.6796857      491.00367      392.80293      11.708709    
 630000000  -0.46873087     456.98695      365.58956      10.89753     
 640000000  -0.61212041     277.06835      221.65468      6.607105     
 650000000  -1.7630479      198.376        158.7008       4.7305694    
 660000000  -2.0102101      358.20092      286.56073      8.5418312    
 670000000  -2.817599       438.3568       350.68544      10.453267    
 680000000  -0.379993       301.77299      241.41839      7.1962238    
 690000000   0.39850007     329.45772      263.56618      7.8564071    
 700000000   0.63955174     228.12924      182.50339      5.4400794    
 710000000   0.20762809     163.74132      130.99306      3.9046542    
 720000000  -1.1859241      190.37103      152.29682      4.539679     
 730000000  -0.78616261     254.91043      203.92835      6.0787167    
 740000000   0.40249456     224.92892      179.94314      5.3637632    
 750000000   1.2527482      137.6287       110.10296      3.28196      
 760000000   0.70719021     329.33971      263.47177      7.853593     
 770000000  -1.7510086      202.84261      162.27409      4.8370823    
 780000000  -1.8375139      346.60211      277.28169      8.2652404    
 790000000  -0.6185115      365.32814      292.26251      8.7117904    
 800000000  -0.47195667     284.72179      227.77743      6.7896126    
 810000000   0.83492888     326.06047      260.84838      7.7753947    
 820000000   0.23761785     228.56154      182.84923      5.4503883    
 830000000   0.080961245    187.00713      149.6057       4.4594618    
 840000000   1.4896159      348.00699      278.4056       8.298742     
 850000000   0.28541422     389.22962      311.3837       9.2817565    
 860000000   1.772428       221.84222      177.47377      5.2901561    
 870000000   2.550829       219.21536      175.37229      5.2275148    
 880000000   3.6256778      352.45319      281.96255      8.4047681    
 890000000   2.0051538      230.61565      184.49252      5.4993716    
 900000000  -8.9687275      286.47088      229.17671      6.8313223    
 910000000   13.680176      480.26407      384.21126      11.452608    
 920000000  -6.7763728      136.72916      109.38333      3.2605092    
 930000000  -0.37612453     291.33048      233.06439      6.9472067    
 940000000   1.9513584      273.05454      218.44364      6.5113898    
 950000000   2.9935408      359.177        287.3416       8.5651072    
 960000000   0.88410758     360.26383      288.21106      8.5910243    
 970000000   0.15995805     260.00862      208.0069       6.2002905    
 980000000   0.13875063     365.19361      292.15489      8.7085823    
 990000000   0.15554103     308.27082      246.61666      7.3511742    
1000000000   0.75039874     314.3077       251.44616      7.4951323    
Loop time of 1582.45 on 1 procs for 1000000000 steps with 11 atoms

Performance: 0.055 ns/day, 439.568 hours/ns, 631933.247 timesteps/s, 6.951 Matom-step/s
100.0% CPU use with 1 MPI tasks x 1 OpenMP threads

MPI task timing breakdown:
Section |  min time  |  avg time  |  max time  |%varavg| %total
---------------------------------------------------------------
Pair    | 0          | 0          | 0          |   0.0 |  0.00
Bond    | 506.76     | 506.76     | 506.76     |   0.0 | 32.02
Neigh   | 0          | 0          | 0          |   0.0 |  0.00
Comm    | 71.689     | 71.689     | 71.689     |   0.0 |  4.53
Output  | 0.0018864  | 0.0018864  | 0.0018864  |   0.0 |  0.00
Modify  | 789.26     | 789.26     | 789.26     |   0.0 | 49.88
Other   |            | 214.7      |            |       | 13.57

Nlocal:             11 ave          11 max          11 min
Histogram: 1 0 0 0 0 0 0 0 0 0
Nghost:              0 ave           0 max           0 min
Histogram: 1 0 0 0 0 0 0 0 0 0
Neighs:              0 ave           0 max           0 min
Histogram: 1 0 0 0 0 0 0 0 0 0

Total # of neighbors = 0
Ave neighs/atom = 0
Ave special neighs/atom = 4.9090909
Neighbor list builds = 0
Dangerous builds = 0
Total wall time: 0:26:22
