
variable totLength equal 10
variable dispDist equal "v_totLength * v_dispRatio / 2"

variable seed equal 1
units real
boundary p p p

atom_style molecular

region main block -500 500 -500 500 -500 500

create_box 41 main bond/types 40 angle/types 39 extra/bond/per/atom 2 extra/angle/per/atom 3 extra/special/per/atom 6
Created orthogonal box = (-500 -500 -500) to (500 500 500)
  1 by 1 by 1 MPI processor grid

molecule WLC_41 Structures/Production/relaxed_WLC_41.txt
Read molecule template WLC_41:
# Relaxed Production Model for Worm-Like Chain
  1 molecules
  0 fragments
  41 atoms with max type 41
  40 bonds with max type 40
  39 angles with max type 39
  0 dihedrals with max type 0
  0 impropers with max type 0
bond_style harmonic
angle_style harmonic
dihedral_style none

create_atoms 0 single 0 0 0 mol WLC_41 ${seed} rotate 0 0 0 1
create_atoms 0 single 0 0 0 mol WLC_41 1 rotate 0 0 0 1
Created 41 atoms
  using lattice units in orthogonal box = (-500 -500 -500) to (500 500 500)
  create_atoms CPU = 0.001 seconds

read_data Structures/Coeffs/coeffs_WLC_41.data add merge
Reading data file ...
  orthogonal box = (-500 -500 -500) to (500 500 500)
  1 by 1 by 1 MPI processor grid
Finding 1-2 1-3 1-4 neighbors ...
  special bond factors lj:    0        0        0       
  special bond factors coul:  0        0        0       
     3 = max # of 1-2 neighbors
     6 = max # of 1-3 neighbors
    18 = max # of 1-4 neighbors
    13 = max # of special neighbors
  special bonds CPU = 0.000 seconds
  read_data CPU = 0.012 seconds
bond_coeff * 0 1

group internals type 2:40
39 atoms in group internals
group endpointAlpha type 1
1 atoms in group endpointAlpha
group endpointOmega type 41
1 atoms in group endpointOmega
group endpoints subtract all internals
2 atoms in group endpoints

displace_atoms endpointAlpha move 0 ${dispDist} 0 units box
displace_atoms endpointAlpha move 0 5 0 units box
Displacing atoms ...
displace_atoms endpointOmega move 0 -${dispDist} 0 units box
displace_atoms endpointOmega move 0 -5 0 units box
Displacing atoms ...

variable k_restrain equal 100

fix restraint all arclengthrestraint WLC_41 ${k_restrain} ${totLength}
fix restraint all arclengthrestraint WLC_41 100 ${totLength}
fix restraint all arclengthrestraint WLC_41 100 10
fix_modify restraint energy yes

comm_modify cutoff 100

compute internalsTemp internals temp
thermo_style custom step pe ke fnorm epair epair ebond eangle edihed etotal

fix stationary endpoints setforce 0 0 0
min_modify dmax 10 norm max line backtrack # backtrack is necessary because minimizing points of restraint energy are degenerate
minimize 0 0 100000 100000
Neighbor list info ...
  update: every = 1 steps, delay = 0 steps, check = yes
  max neighbors/atom: 2000, page size: 100000
  master list distance cutoff = 0
  ghost atom cutoff = 100
  binsize = 1000, bins = 1 1 1
  1 neighbor lists, perpetual/occasional/extra = 1 0 0
  (1) fix arclengthrestraint, perpetual
      attributes: half, newton on
      pair build: half/bin/newton
      stencil: half/bin/3d
      bin: standard
WARNING: No pairwise cutoff or binsize set. Atom sorting therefore disabled. (../atom.cpp:2442)
Per MPI rank memory allocation (min/avg/max) = 8.622 | 8.622 | 8.622 Mbytes
   Step         PotEng         KinEng         Fnorm          E_pair         E_pair         E_bond        E_angle        E_dihed         TotEng    
         0   601.76212      0              139378.34      0              0              0              100.70615      0              601.76212    
        38   601.71122      0              795.96557      0              0              0              100.67723      0              601.71122    
Loop time of 0.00797699 on 1 procs for 38 steps with 41 atoms

96.1% CPU use with 1 MPI tasks x 1 OpenMP threads

Minimization stats:
  Stopping criterion = linesearch alpha is zero
  Energy initial, next-to-last, final = 
      601.762116502954    601.71121637177    601.71121637177
  Force two-norm initial, final = 139378.34 795.96557
  Force max component initial, final = 70081.332 354.42759
  Final line search alpha, max atom move = 1.2179808e-14 4.31686e-12
  Iterations, force evaluations = 38 1160

MPI task timing breakdown:
Section |  min time  |  avg time  |  max time  |%varavg| %total
---------------------------------------------------------------
Pair    | 0          | 0          | 0          |   0.0 |  0.00
Bond    | 0.0028786  | 0.0028786  | 0.0028786  |   0.0 | 36.09
Neigh   | 0.0009523  | 0.0009523  | 0.0009523  |   0.0 | 11.94
Comm    | 0.00020114 | 0.00020114 | 0.00020114 |   0.0 |  2.52
Output  | 0          | 0          | 0          |   0.0 |  0.00
Modify  | 0.0011527  | 0.0011527  | 0.0011527  |   0.0 | 14.45
Other   |            | 0.002792   |            |       | 35.00

Nlocal:             41 ave          41 max          41 min
Histogram: 1 0 0 0 0 0 0 0 0 0
Nghost:              0 ave           0 max           0 min
Histogram: 1 0 0 0 0 0 0 0 0 0
Neighs:              0 ave           0 max           0 min
Histogram: 1 0 0 0 0 0 0 0 0 0

Total # of neighbors = 0
Ave neighs/atom = 0
Ave special neighs/atom = 5.7073171
Neighbor list builds = 190
Dangerous builds = 115
unfix stationary

reset_timestep 0
timestep 1e-6

fix integrate internals nvt temp 310.0 310.0 $(10.0*dt)
fix integrate internals nvt temp 310.0 310.0 9.999999999999999124e-06
velocity internals create 310.0 ${seed} dist gaussian
velocity internals create 310.0 1 dist gaussian


compute endForce endpointOmega reduce ave fy # Obtain force on endpoint
variable computedForce equal c_endForce # fix print cannot directly print out computes
thermo_style custom step c_endForce c_integrate_temp temp ke

neighbor 100.0 bin
run 0
WARNING: Communication cutoff 100 is shorter than a bond length based estimate of 101.5. This may lead to errors. (../comm.cpp:730)
Per MPI rank memory allocation (min/avg/max) = 7.497 | 7.497 | 7.497 Mbytes
   Step       c_endForce   c_integrate_temp      Temp          KinEng    
         0   0.028698996    310            294.5          35.113942    
Loop time of 9.92e-07 on 1 procs for 0 steps with 41 atoms

0.0% CPU use with 1 MPI tasks x 1 OpenMP threads

MPI task timing breakdown:
Section |  min time  |  avg time  |  max time  |%varavg| %total
---------------------------------------------------------------
Pair    | 0          | 0          | 0          |   0.0 |  0.00
Bond    | 0          | 0          | 0          |   0.0 |  0.00
Neigh   | 0          | 0          | 0          |   0.0 |  0.00
Comm    | 0          | 0          | 0          |   0.0 |  0.00
Output  | 0          | 0          | 0          |   0.0 |  0.00
Modify  | 0          | 0          | 0          |   0.0 |  0.00
Other   |            | 9.92e-07   |            |       |100.00

Nlocal:             41 ave          41 max          41 min
Histogram: 1 0 0 0 0 0 0 0 0 0
Nghost:              0 ave           0 max           0 min
Histogram: 1 0 0 0 0 0 0 0 0 0
Neighs:              0 ave           0 max           0 min
Histogram: 1 0 0 0 0 0 0 0 0 0

Total # of neighbors = 0
Ave neighs/atom = 0
Ave special neighs/atom = 5.7073171
Neighbor list builds = 0
Dangerous builds = 0
velocity internals scale 310.0

variable sampFreq equal 10000000 # Sample force on endpoints every this-many timesteps.
variable numSamps equal 100 # Number of force samples to take.
variable numSteps equal "v_sampFreq * v_numSamps"
thermo ${sampFreq}
thermo 10000000

# Print out force on endpoint below
fix printForces all print ${sampFreq} "${computedForce}" file Out_Force_Extension/data/data_WLC_41_dispRatio_$(v_dispRatio:%.2f).txt screen no
fix printForces all print 10000000 "${computedForce}" file Out_Force_Extension/data/data_WLC_41_dispRatio_$(v_dispRatio:%.2f).txt screen no
fix printForces all print 10000000 "${computedForce}" file Out_Force_Extension/data/data_WLC_41_dispRatio_1.00.txt screen no

### Below is for validation purposes ###
compute blen all bond/local dist
compute end2end all reduce sum c_blen inputs local
variable totLen equal c_end2end

variable computedTemp equal c_integrate_temp
# variable sysTemp equal temp
# variable sysKE equal ke

variable validFile_end2end string "Out_Force_Extension/validation/end2end_WLC_41_Force_Extension_dispRatio_$(v_dispRatio:%.2f).txt"
Out_Force_Extension/validation/end2end_WLC_41_Force_Extension_dispRatio_1.00.txt
fix print_end2end all print ${sampFreq} "${totLen}" file ${validFile_end2end} screen no title "End-to-end arc length of WLC with 41 atoms"
fix print_end2end all print 10000000 "${totLen}" file ${validFile_end2end} screen no title "End-to-end arc length of WLC with 41 atoms"
fix print_end2end all print 10000000 "${totLen}" file Out_Force_Extension/validation/end2end_WLC_41_Force_Extension_dispRatio_1.00.txt screen no title "End-to-end arc length of WLC with 41 atoms"

variable validFile_internalsTemp string "Out_Force_Extension/validation/internalsTemp_WLC_41_Force_Extension_dispRatio_$(v_dispRatio:%.2f).txt"
Out_Force_Extension/validation/internalsTemp_WLC_41_Force_Extension_dispRatio_1.00.txt
fix print_internalsTemp all print ${sampFreq} "${computedTemp}" file ${validFile_internalsTemp} screen no title "Temperature (K) of internal atoms of WLC with 41 atoms"
fix print_internalsTemp all print 10000000 "${computedTemp}" file ${validFile_internalsTemp} screen no title "Temperature (K) of internal atoms of WLC with 41 atoms"
fix print_internalsTemp all print 10000000 "${computedTemp}" file Out_Force_Extension/validation/internalsTemp_WLC_41_Force_Extension_dispRatio_1.00.txt screen no title "Temperature (K) of internal atoms of WLC with 41 atoms"
### End of validation block ###


run ${numSteps}
run 1000000000
WARNING: Communication cutoff 100 is shorter than a bond length based estimate of 101.5. This may lead to errors. (../comm.cpp:730)
Per MPI rank memory allocation (min/avg/max) = 7.573 | 7.573 | 7.573 Mbytes
   Step       c_endForce   c_integrate_temp      Temp          KinEng    
         0   0.028698996    310            294.5          35.113942    
  10000000   41.410841      270.33361      256.81693      30.620899    
  20000000   21.693959      298.04724      283.14488      33.760044    
  30000000   14.367026      288.27005      273.85655      32.652574    
  40000000   13.000209      322.35347      306.2358       36.51323     
  50000000   12.24757       340.75063      323.7131       38.59709     
  60000000   12.660485      323.45047      307.27795      36.637488    
  70000000   13.489227      242.78257      230.64345      27.500172    
  80000000   10.751333      378.33602      359.41922      42.854417    
  90000000   7.9107306      295.88473      281.0905       33.515095    
 100000000   7.0863437      313.07568      297.4219       35.462327    
 110000000   6.1591506      277.93873      264.04179      31.482337    
 120000000   5.3173747      234.32627      222.60996      26.54232     
 130000000   5.0104526      393.2676       373.60422      44.545728    
 140000000   66.043546      369.47211      350.9985       41.850394    
 150000000  -37.501379      267.58965      254.21017      30.310089    
 160000000   10.093111      219.62441      208.64319      24.877029    
 170000000   9.9899447      322.42263      306.3015       36.521064    
 180000000   8.3558012      269.25181      255.78922      30.498363    
 190000000   3.4274038      290.51094      275.9854       32.906402    
 200000000   6.2621379      351.05832      333.50541      39.764651    
 210000000   10.637559      323.89275      307.69811      36.687585    
 220000000   1.1195661      269.60336      256.12319      30.538183    
 230000000   9.0045044      241.06136      229.0083       27.305209    
 240000000   0.34236934     325.73411      309.4474       36.896157    
 250000000  -0.81498411     320.89567      304.85089      36.348104    
 260000000  -11.89875       336.17226      319.36365      38.078495    
 270000000  -1.178926       295.13858      280.38165      33.430578    
 280000000   13.04537       295.06         280.307        33.421677    
 290000000  -1.6111259      304.07179      288.8682       34.44245     
 300000000   6.7877535      315.04152      299.28945      35.685       
 310000000   4.257641       365.1477       346.89032      41.360566    
 320000000   8.7511745      342.28689      325.17254      38.771104    
 330000000   1.1890937      282.19291      268.08327      31.964212    
 340000000   7.5387824      251.82349      239.23232      28.524244    
 350000000   1.5812699      324.63525      308.40349      36.771689    
 360000000   0.97655202     367.34868      348.98125      41.609873    
 370000000  -102.93086      327.38777      311.01838      37.083468    
 380000000  -0.10702169     296.31264      281.49701      33.563565    
 390000000   7.1304881      279.43446      265.46274      31.65176     
 400000000   4.7894256      320.64701      304.61466      36.319938    
 410000000   2.6387554      322.99622      306.84641      36.586034    
 420000000   0.55684645     316.86967      301.02619      35.892076    
 430000000  -1.1884926      348.95441      331.50669      39.526339    
 440000000   5.3711255      279.50434      265.52913      31.659675    
 450000000  -10.360402      330.24121      313.72915      37.406681    
 460000000   9.5133836      292.62124      277.99018      33.145437    
 470000000   1.6790727      299.76241      284.77429      33.954323    
 480000000   8.7471916      334.9992       318.24924      37.945621    
 490000000   2.4444406      269.75956      256.27159      30.555877    
 500000000  -90.212048      262.87179      249.7282       29.775693    
 510000000   3.8801453      220.00705      209.0067       24.92037     
 520000000   3.5093783      326.68004      310.34603      37.003303    
 530000000   4.1119165      248.32717      235.91081      28.128213    
 540000000   6.7219769      284.04271      269.84057      32.17374     
 550000000   7.3618782      274.02252      260.3214       31.038745    
 560000000  -21.926399      298.29462      283.37989      33.788065    
 570000000   4.4890753      377.06047      358.20745      42.709935    
 580000000   4.8448752      267.99014      254.59063      30.355453    
 590000000  -6.068712       373.95806      355.26015      42.358521    
 600000000   6.205993       324.46154      308.23846      36.752012    
 610000000   5.2475862      349.55597      332.07817      39.594478    
 620000000  -12.458252      332.21504      315.60428      37.630257    
 630000000  -2.7464161      334.26144      317.54837      37.862055    
 640000000   3.9548715      351.00471      333.45447      39.758578    
 650000000   4.7890092      279.61778      265.63689      31.672524    
 660000000   6.613598       305.96088      290.66283      34.656428    
 670000000   9.4998327      246.79934      234.45938      27.955155    
 680000000   9.4092178      306.74725      291.40989      34.745501    
 690000000   5.6161565      270.34536      256.8281       30.622231    
 700000000   7.6195137      240.07362      228.06994      27.193326    
 710000000   4.4329911      254.85282      242.11018      28.867379    
 720000000   1.3713169      293.19         278.5305       33.20986     
 730000000  -9.0405397      303.43614      288.26433      34.370449    
 740000000  -4.9361408      292.72847      278.09204      33.157582    
 750000000   1.3520925      285.12927      270.8728       32.296815    
 760000000  -58.680047      310.29989      294.7849       35.147911    
 770000000   7.982442       269.07684      255.623        30.478544    
 780000000   7.5605984      288.50068      274.07565      32.678698    
 790000000   4.9257692      351.39578      333.82599      39.802875    
 800000000  -0.72776773     312.16644      296.55811      35.359336    
 810000000   5.8003842      383.64459      364.46237      43.455723    
 820000000   9.1542154      312.33664      296.71981      35.378615    
 830000000   11.572383      327.54228      311.16517      37.10097     
 840000000   11.434323      294.32409      279.60789      33.33832     
 850000000  -0.70116275     337.93794      321.04105      38.278495    
 860000000  -8.5530921      229.37683      217.90798      25.981692    
 870000000   7.4174901      341.35743      324.28955      38.665822    
 880000000   7.2317716      301.72651      286.64018      34.176797    
 890000000   0.40025938     352.48763      334.86325      39.926549    
 900000000   6.4204344      368.81343      350.37276      41.775786    
 910000000   7.6207093      300.67707      285.64321      34.057926    
 920000000   4.7967299      273.54999      259.87249      30.985222    
 930000000   3.6513753      339.39938      322.42941      38.444033    
 940000000  -10.092543      363.3462       345.17889      41.156509    
 950000000   5.201334       314.21877      298.50783      35.591805    
 960000000   6.0127505      294.63461      279.90288      33.373493    
 970000000   0.57313338     311.85827      296.26535      35.32443     
 980000000  -2.6633056      314.22303      298.51188      35.592288    
 990000000   2.0541732      289.26029      274.79727      32.764739    
1000000000  -1.635515       421.81299      400.72234      47.779087    
Loop time of 4160.26 on 1 procs for 1000000000 steps with 41 atoms

Performance: 0.021 ns/day, 1155.628 hours/ns, 240369.630 timesteps/s, 9.855 Matom-step/s
100.0% CPU use with 1 MPI tasks x 1 OpenMP threads

MPI task timing breakdown:
Section |  min time  |  avg time  |  max time  |%varavg| %total
---------------------------------------------------------------
Pair    | 0          | 0          | 0          |   0.0 |  0.00
Bond    | 1933.8     | 1933.8     | 1933.8     |   0.0 | 46.48
Neigh   | 0          | 0          | 0          |   0.0 |  0.00
Comm    | 80.595     | 80.595     | 80.595     |   0.0 |  1.94
Output  | 0.0036439  | 0.0036439  | 0.0036439  |   0.0 |  0.00
Modify  | 1783.1     | 1783.1     | 1783.1     |   0.0 | 42.86
Other   |            | 362.7      |            |       |  8.72

Nlocal:             41 ave          41 max          41 min
Histogram: 1 0 0 0 0 0 0 0 0 0
Nghost:              0 ave           0 max           0 min
Histogram: 1 0 0 0 0 0 0 0 0 0
Neighs:              0 ave           0 max           0 min
Histogram: 1 0 0 0 0 0 0 0 0 0

Total # of neighbors = 0
Ave neighs/atom = 0
Ave special neighs/atom = 5.7073171
Neighbor list builds = 0
Dangerous builds = 0
Total wall time: 1:09:20
