
variable totLength equal 10
variable dispDist equal "v_totLength * v_dispRatio / 2"

variable seed equal 1
units real
boundary p p p

atom_style molecular

region main block -500 500 -500 500 -500 500

create_box 21 main bond/types 20 angle/types 19 extra/bond/per/atom 2 extra/angle/per/atom 3 extra/special/per/atom 6
Created orthogonal box = (-500 -500 -500) to (500 500 500)
  1 by 1 by 1 MPI processor grid

molecule WLC_21 Structures/Production/relaxed_WLC_21.txt
Read molecule template WLC_21:
# Relaxed Production Model for Worm-Like Chain
  1 molecules
  0 fragments
  21 atoms with max type 21
  20 bonds with max type 20
  19 angles with max type 19
  0 dihedrals with max type 0
  0 impropers with max type 0
bond_style harmonic
angle_style harmonic
dihedral_style none

create_atoms 0 single 0 0 0 mol WLC_21 ${seed} rotate 0 0 0 1
create_atoms 0 single 0 0 0 mol WLC_21 1 rotate 0 0 0 1
Created 21 atoms
  using lattice units in orthogonal box = (-500 -500 -500) to (500 500 500)
  create_atoms CPU = 0.001 seconds

read_data Structures/Coeffs/coeffs_WLC_21.data add merge
Reading data file ...
  orthogonal box = (-500 -500 -500) to (500 500 500)
  1 by 1 by 1 MPI processor grid
Finding 1-2 1-3 1-4 neighbors ...
  special bond factors lj:    0        0        0       
  special bond factors coul:  0        0        0       
     3 = max # of 1-2 neighbors
     6 = max # of 1-3 neighbors
    18 = max # of 1-4 neighbors
    13 = max # of special neighbors
  special bonds CPU = 0.000 seconds
  read_data CPU = 0.009 seconds
bond_coeff * 0 1

group internals type 2:20
19 atoms in group internals
group endpointAlpha type 1
1 atoms in group endpointAlpha
group endpointOmega type 21
1 atoms in group endpointOmega
group endpoints subtract all internals
2 atoms in group endpoints

displace_atoms endpointAlpha move 0 ${dispDist} 0 units box
displace_atoms endpointAlpha move 0 3 0 units box
Displacing atoms ...
displace_atoms endpointOmega move 0 -${dispDist} 0 units box
displace_atoms endpointOmega move 0 -3 0 units box
Displacing atoms ...

variable k_restrain equal 200

fix restraint all arclengthrestraint WLC_21 ${k_restrain} ${totLength}
fix restraint all arclengthrestraint WLC_21 200 ${totLength}
fix restraint all arclengthrestraint WLC_21 200 10
fix_modify restraint energy yes

comm_modify cutoff 100

compute internalsTemp internals temp
thermo_style custom step pe ke fnorm epair epair ebond eangle edihed etotal

fix stationary endpoints setforce 0 0 0
min_modify dmax 10 norm max line backtrack # backtrack is necessary because minimizing points of restraint energy are degenerate
minimize 0 0 100000 100000
Neighbor list info ...
  update: every = 1 steps, delay = 0 steps, check = yes
  max neighbors/atom: 2000, page size: 100000
  master list distance cutoff = 0
  ghost atom cutoff = 100
  binsize = 1000, bins = 1 1 1
  1 neighbor lists, perpetual/occasional/extra = 1 0 0
  (1) fix arclengthrestraint, perpetual
      attributes: half, newton on
      pair build: half/bin/newton
      stencil: half/bin/3d
      bin: standard
WARNING: No pairwise cutoff or binsize set. Atom sorting therefore disabled. (../atom.cpp:2442)
Per MPI rank memory allocation (min/avg/max) = 8.621 | 8.621 | 8.621 Mbytes
   Step         PotEng         KinEng         Fnorm          E_pair         E_pair         E_bond        E_angle        E_dihed         TotEng    
         0   189.89669      0              2449.9053      0              0              0              31.139909      0              189.89669    
        47   189.53226      0              3088.5285      0              0              0              30.887477      0              189.53226    
Loop time of 0.00567086 on 1 procs for 47 steps with 21 atoms

100.0% CPU use with 1 MPI tasks x 1 OpenMP threads

Minimization stats:
  Stopping criterion = energy tolerance
  Energy initial, next-to-last, final = 
      189.896688165846   189.532262316207   189.532262316207
  Force two-norm initial, final = 2449.9053 3088.5285
  Force max component initial, final = 1465.4108 1579.4947
  Final line search alpha, max atom move = 7.1976713e-16 1.1368684e-12
  Iterations, force evaluations = 47 1268

MPI task timing breakdown:
Section |  min time  |  avg time  |  max time  |%varavg| %total
---------------------------------------------------------------
Pair    | 0          | 0          | 0          |   0.0 |  0.00
Bond    | 0.0017128  | 0.0017128  | 0.0017128  |   0.0 | 30.20
Neigh   | 0.00043958 | 0.00043958 | 0.00043958 |   0.0 |  7.75
Comm    | 0.00020368 | 0.00020368 | 0.00020368 |   0.0 |  3.59
Output  | 0          | 0          | 0          |   0.0 |  0.00
Modify  | 0.00095572 | 0.00095572 | 0.00095572 |   0.0 | 16.85
Other   |            | 0.002359   |            |       | 41.60

Nlocal:             21 ave          21 max          21 min
Histogram: 1 0 0 0 0 0 0 0 0 0
Nghost:              0 ave           0 max           0 min
Histogram: 1 0 0 0 0 0 0 0 0 0
Neighs:              0 ave           0 max           0 min
Histogram: 1 0 0 0 0 0 0 0 0 0

Total # of neighbors = 0
Ave neighs/atom = 0
Ave special neighs/atom = 5.4285714
Neighbor list builds = 235
Dangerous builds = 142
unfix stationary

reset_timestep 0
timestep 1e-6

fix integrate internals nvt temp 310.0 310.0 $(10.0*dt)
fix integrate internals nvt temp 310.0 310.0 9.999999999999999124e-06
velocity internals create 310.0 ${seed} dist gaussian
velocity internals create 310.0 1 dist gaussian


compute endForce endpointOmega reduce ave fy # Obtain force on endpoint
variable computedForce equal c_endForce # fix print cannot directly print out computes
thermo_style custom step c_endForce c_integrate_temp temp ke

neighbor 100.0 bin
run 0
WARNING: Communication cutoff 100 is shorter than a bond length based estimate of 101.5. This may lead to errors. (../comm.cpp:730)
Per MPI rank memory allocation (min/avg/max) = 7.496 | 7.496 | 7.496 Mbytes
   Step       c_endForce   c_integrate_temp      Temp          KinEng    
         0   0.070979901    310            279            16.63292     
Loop time of 8.92e-07 on 1 procs for 0 steps with 21 atoms

112.1% CPU use with 1 MPI tasks x 1 OpenMP threads

MPI task timing breakdown:
Section |  min time  |  avg time  |  max time  |%varavg| %total
---------------------------------------------------------------
Pair    | 0          | 0          | 0          |   0.0 |  0.00
Bond    | 0          | 0          | 0          |   0.0 |  0.00
Neigh   | 0          | 0          | 0          |   0.0 |  0.00
Comm    | 0          | 0          | 0          |   0.0 |  0.00
Output  | 0          | 0          | 0          |   0.0 |  0.00
Modify  | 0          | 0          | 0          |   0.0 |  0.00
Other   |            | 8.92e-07   |            |       |100.00

Nlocal:             21 ave          21 max          21 min
Histogram: 1 0 0 0 0 0 0 0 0 0
Nghost:              0 ave           0 max           0 min
Histogram: 1 0 0 0 0 0 0 0 0 0
Neighs:              0 ave           0 max           0 min
Histogram: 1 0 0 0 0 0 0 0 0 0

Total # of neighbors = 0
Ave neighs/atom = 0
Ave special neighs/atom = 5.4285714
Neighbor list builds = 0
Dangerous builds = 0
velocity internals scale 310.0

variable sampFreq equal 10000000 # Sample force on endpoints every this-many timesteps.
variable numSamps equal 100 # Number of force samples to take.
variable numSteps equal "v_sampFreq * v_numSamps"
thermo ${sampFreq}
thermo 10000000

# Print out force on endpoint below
fix printForces all print ${sampFreq} "${computedForce}" file Out_Force_Extension/data/data_WLC_21_dispRatio_$(v_dispRatio:%.2f).txt screen no
fix printForces all print 10000000 "${computedForce}" file Out_Force_Extension/data/data_WLC_21_dispRatio_$(v_dispRatio:%.2f).txt screen no
fix printForces all print 10000000 "${computedForce}" file Out_Force_Extension/data/data_WLC_21_dispRatio_0.60.txt screen no

### Below is for validation purposes ###
compute blen all bond/local dist
compute end2end all reduce sum c_blen inputs local
variable totLen equal c_end2end

variable computedTemp equal c_integrate_temp
# variable sysTemp equal temp
# variable sysKE equal ke

variable validFile_end2end string "Out_Force_Extension/validation/end2end_WLC_21_Force_Extension_dispRatio_$(v_dispRatio:%.2f).txt"
Out_Force_Extension/validation/end2end_WLC_21_Force_Extension_dispRatio_0.60.txt
fix print_end2end all print ${sampFreq} "${totLen}" file ${validFile_end2end} screen no title "End-to-end arc length of WLC with 21 atoms"
fix print_end2end all print 10000000 "${totLen}" file ${validFile_end2end} screen no title "End-to-end arc length of WLC with 21 atoms"
fix print_end2end all print 10000000 "${totLen}" file Out_Force_Extension/validation/end2end_WLC_21_Force_Extension_dispRatio_0.60.txt screen no title "End-to-end arc length of WLC with 21 atoms"

variable validFile_internalsTemp string "Out_Force_Extension/validation/internalsTemp_WLC_21_Force_Extension_dispRatio_$(v_dispRatio:%.2f).txt"
Out_Force_Extension/validation/internalsTemp_WLC_21_Force_Extension_dispRatio_0.60.txt
fix print_internalsTemp all print ${sampFreq} "${computedTemp}" file ${validFile_internalsTemp} screen no title "Temperature (K) of internal atoms of WLC with 21 atoms"
fix print_internalsTemp all print 10000000 "${computedTemp}" file ${validFile_internalsTemp} screen no title "Temperature (K) of internal atoms of WLC with 21 atoms"
fix print_internalsTemp all print 10000000 "${computedTemp}" file Out_Force_Extension/validation/internalsTemp_WLC_21_Force_Extension_dispRatio_0.60.txt screen no title "Temperature (K) of internal atoms of WLC with 21 atoms"
### End of validation block ###


run ${numSteps}
run 1000000000
WARNING: Communication cutoff 100 is shorter than a bond length based estimate of 101.5. This may lead to errors. (../comm.cpp:730)
Per MPI rank memory allocation (min/avg/max) = 7.572 | 7.572 | 7.572 Mbytes
   Step       c_endForce   c_integrate_temp      Temp          KinEng    
         0   0.070979901    310            279            16.63292     
  10000000   20.353891      243.77503      219.39753      13.079647    
  20000000  -15.324908      342.67245      308.40521      18.385947    
  30000000  -1.912661       312.51567      281.26411      16.767897    
  40000000   19.052642      200.49776      180.44798      10.757623    
  50000000   11.818557      327.29713      294.56742      17.560991    
  60000000  -3.9088693      242.57881      218.32093      13.015464    
  70000000   4.4631453      322.13771      289.92394      17.284164    
  80000000   2.7748283      242.87185      218.58467      13.031187    
  90000000  -0.51204717     312.40066      281.16059      16.761726    
 100000000   5.4290341      319.69074      287.72166      17.152873    
 110000000   2.5873196      339.80193      305.82174      18.23193     
 120000000   4.3048783      276.97783      249.28005      14.86113     
 130000000   1.3283746      265.44796      238.90316      14.242499    
 140000000  -2.2202204      366.74305      330.06875      19.677445    
 150000000  -8.1765917      287.7437       258.96933      15.438768    
 160000000   2.2005086      258.00886      232.20798      13.843357    
 170000000  -1.2906013      327.58084      294.82275      17.576212    
 180000000   1.2847979      243.36932      219.03239      13.057879    
 190000000   3.5412228      371.08985      333.98087      19.910671    
 200000000  -0.90488166     305.74944      275.1745       16.404858    
 210000000   0.81238853     405.98824      365.38942      21.783129    
 220000000   1.1550881      251.8568       226.67112      13.513271    
 230000000   0.68352181     326.51148      293.86033      17.518836    
 240000000  -2.1958471      261.37653      235.23888      14.024048    
 250000000  -3.2869601      336.48393      302.83553      18.053904    
 260000000  -2.0370481      242.913        218.6217       13.033395    
 270000000  -1.3602722      310.95447      279.85902      16.684132    
 280000000  -2.5121932      231.35766      208.22189      12.413398    
 290000000  -4.1261391      342.597        308.3373       18.381899    
 300000000  -3.5723643      507.29465      456.56519      27.218682    
 310000000  -0.84035842     228.99278      206.0935       12.286512    
 320000000  -2.9284383      379.41248      341.47123      20.357218    
 330000000  -0.75166493     280.73848      252.66463      15.062906    
 340000000   0.1844504      230.49708      207.44737      12.367224    
 350000000  -3.8049527      246.86952      222.18257      13.245681    
 360000000   1.8967916      273.68217      246.31395      14.684302    
 370000000   4.7286806      408.00704      367.20634      21.891447    
 380000000  -1.0320485      195.52208      175.96987      10.490655    
 390000000   2.0667241      315.15342      283.63808      16.909425    
 400000000   2.0781602      288.53127      259.67814      15.481024    
 410000000   2.6323885      247.16859      222.45173      13.261727    
 420000000  -0.26993968     259.60773      233.64696      13.929144    
 430000000   4.0334293      221.93711      199.7434       11.907943    
 440000000   3.422729       260.21601      234.19441      13.961781    
 450000000  -2.6318162      317.33374      285.60036      17.026409    
 460000000  -11.10778       280.00497      252.00447      15.023549    
 470000000   0.1519558      312.56224      281.30601      16.770396    
 480000000   5.9708018      388.66994      349.80295      20.853923    
 490000000  -33.844197      316.78178      285.1036       16.996794    
 500000000   6.0728469      316.64202      284.97782      16.989295    
 510000000   5.5647182      300.55096      270.49586      16.125936    
 520000000  -2.3094033      369.24879      332.32391      19.811889    
 530000000  -0.23110829     387.9303       349.13727      20.814237    
 540000000   5.5017018      342.31122      308.0801       18.366565    
 550000000  -2.7751417      252.36957      227.13261      13.540783    
 560000000  -5.7856041      337.00299      303.3027       18.081754    
 570000000   0.45290303     322.78742      290.50868      17.319024    
 580000000   7.684956       278.65471      250.78924      14.951102    
 590000000  -2.8288388      310.61915      279.55724      16.66614     
 600000000  -3.1996255      291.55206      262.39686      15.643104    
 610000000   0.71983095     339.43689      305.4932       18.212344    
 620000000   2.1836362      304.34414      273.90973      16.329457    
 630000000  -1.1009007      224.22776      201.80499      12.030847    
 640000000   2.3520556      354.12764      318.71487      19.00057     
 650000000   3.1145191      195.91078      176.3197       10.511511    
 660000000   1.355456       281.92008      253.72807      15.126304    
 670000000   1.5948933      296.64174      266.97756      15.916188    
 680000000   1.3109966      362.44778      326.203        19.446984    
 690000000  -2.196872       309.86767      278.88091      16.62582     
 700000000   5.4458222      265.1872       238.66848      14.228508    
 710000000   2.5017506      440.99312      396.89381      23.661301    
 720000000  -1.4954879      284.70684      256.23616      15.275826    
 730000000  -2.4821876      300.92051      270.82845      16.145764    
 740000000  -1.0267694      298.55399      268.6986       16.018789    
 750000000  -5.4295152      270.34666      243.312        14.505337    
 760000000   1.9524097      354.9998       319.49982      19.047366    
 770000000   5.0724897      307.48221      276.73399      16.497829    
 780000000   6.5138523      305.61817      275.05636      16.397815    
 790000000  -0.8115314      446.62798      401.96518      23.963637    
 800000000  -0.97775586     427.49911      384.7492       22.937286    
 810000000   0.76843622     342.24636      308.02172      18.363085    
 820000000   0.50822601     323.1742       290.85678      17.339776    
 830000000  -0.64930936     423.92055      381.5285       22.74528     
 840000000   3.5298715      254.7512       229.27608      13.668569    
 850000000   3.7812163      280.08021      252.07219      15.027586    
 860000000  -1.6347824      404.23479      363.81131      21.689048    
 870000000   3.4858098      394.41437      354.97293      21.162137    
 880000000   3.4567879      257.34798      231.61318      13.807898    
 890000000   4.6426579      306.32402      275.69162      16.435687    
 900000000   3.32806        280.34589      252.3113       15.041841    
 910000000   3.9846712      428.70943      385.83848      23.002225    
 920000000  -4.6772354      303.45534      273.10981      16.281769    
 930000000  -1.0307696      251.79727      226.61754      13.510077    
 940000000  -0.83346549     231.56714      208.41043      12.424638    
 950000000  -4.2266686      290.21908      261.19717      15.571583    
 960000000  -1.1771992      301.94958      271.75462      16.200978    
 970000000   5.3804033      275.08274      247.57446      14.759449    
 980000000  -7.2201877      337.32606      303.59346      18.099089    
 990000000   9.3545983      253.65767      228.29191      13.609896    
1000000000  -9.7151852      255.62488      230.06239      13.715446    
Loop time of 2709.7 on 1 procs for 1000000000 steps with 21 atoms

Performance: 0.032 ns/day, 752.695 hours/ns, 369044.178 timesteps/s, 7.750 Matom-step/s
100.0% CPU use with 1 MPI tasks x 1 OpenMP threads

MPI task timing breakdown:
Section |  min time  |  avg time  |  max time  |%varavg| %total
---------------------------------------------------------------
Pair    | 0          | 0          | 0          |   0.0 |  0.00
Bond    | 987.89     | 987.89     | 987.89     |   0.0 | 36.46
Neigh   | 0          | 0          | 0          |   0.0 |  0.00
Comm    | 75.14      | 75.14      | 75.14      |   0.0 |  2.77
Output  | 0.0017766  | 0.0017766  | 0.0017766  |   0.0 |  0.00
Modify  | 1317.7     | 1317.7     | 1317.7     |   0.0 | 48.63
Other   |            | 329        |            |       | 12.14

Nlocal:             21 ave          21 max          21 min
Histogram: 1 0 0 0 0 0 0 0 0 0
Nghost:              0 ave           0 max           0 min
Histogram: 1 0 0 0 0 0 0 0 0 0
Neighs:              0 ave           0 max           0 min
Histogram: 1 0 0 0 0 0 0 0 0 0

Total # of neighbors = 0
Ave neighs/atom = 0
Ave special neighs/atom = 5.4285714
Neighbor list builds = 0
Dangerous builds = 0
Total wall time: 0:45:09
