
variable totLength equal 10
variable dispDist equal "v_totLength * v_dispRatio / 2"

variable seed equal 1
units real
boundary p p p

atom_style molecular

region main block -500 500 -500 500 -500 500

create_box 21 main bond/types 20 angle/types 19 extra/bond/per/atom 2 extra/angle/per/atom 3 extra/special/per/atom 6
Created orthogonal box = (-500 -500 -500) to (500 500 500)
  1 by 1 by 1 MPI processor grid

molecule WLC_21 Structures/Production/relaxed_WLC_21.txt
Read molecule template WLC_21:
# Relaxed Production Model for Worm-Like Chain
  1 molecules
  0 fragments
  21 atoms with max type 21
  20 bonds with max type 20
  19 angles with max type 19
  0 dihedrals with max type 0
  0 impropers with max type 0
bond_style harmonic
angle_style harmonic
dihedral_style none

create_atoms 0 single 0 0 0 mol WLC_21 ${seed} rotate 0 0 0 1
create_atoms 0 single 0 0 0 mol WLC_21 1 rotate 0 0 0 1
Created 21 atoms
  using lattice units in orthogonal box = (-500 -500 -500) to (500 500 500)
  create_atoms CPU = 0.001 seconds

read_data Structures/Coeffs/coeffs_WLC_21.data add merge
Reading data file ...
  orthogonal box = (-500 -500 -500) to (500 500 500)
  1 by 1 by 1 MPI processor grid
Finding 1-2 1-3 1-4 neighbors ...
  special bond factors lj:    0        0        0       
  special bond factors coul:  0        0        0       
     3 = max # of 1-2 neighbors
     6 = max # of 1-3 neighbors
    18 = max # of 1-4 neighbors
    13 = max # of special neighbors
  special bonds CPU = 0.000 seconds
  read_data CPU = 0.009 seconds
bond_coeff * 0 1

group internals type 2:20
19 atoms in group internals
group endpointAlpha type 1
1 atoms in group endpointAlpha
group endpointOmega type 21
1 atoms in group endpointOmega
group endpoints subtract all internals
2 atoms in group endpoints

displace_atoms endpointAlpha move 0 ${dispDist} 0 units box
displace_atoms endpointAlpha move 0 4.85 0 units box
Displacing atoms ...
displace_atoms endpointOmega move 0 -${dispDist} 0 units box
displace_atoms endpointOmega move 0 -4.85 0 units box
Displacing atoms ...

variable k_restrain equal 200

fix restraint all arclengthrestraint WLC_21 ${k_restrain} ${totLength}
fix restraint all arclengthrestraint WLC_21 200 ${totLength}
fix restraint all arclengthrestraint WLC_21 200 10
fix_modify restraint energy yes

comm_modify cutoff 100

compute internalsTemp internals temp
thermo_style custom step pe ke fnorm epair epair ebond eangle edihed etotal

fix stationary endpoints setforce 0 0 0
min_modify dmax 10 norm max line backtrack # backtrack is necessary because minimizing points of restraint energy are degenerate
minimize 0 0 100000 100000
Neighbor list info ...
  update: every = 1 steps, delay = 0 steps, check = yes
  max neighbors/atom: 2000, page size: 100000
  master list distance cutoff = 0
  ghost atom cutoff = 100
  binsize = 1000, bins = 1 1 1
  1 neighbor lists, perpetual/occasional/extra = 1 0 0
  (1) fix arclengthrestraint, perpetual
      attributes: half, newton on
      pair build: half/bin/newton
      stencil: half/bin/3d
      bin: standard
WARNING: No pairwise cutoff or binsize set. Atom sorting therefore disabled. (../atom.cpp:2442)
Per MPI rank memory allocation (min/avg/max) = 8.621 | 8.621 | 8.621 Mbytes
   Step         PotEng         KinEng         Fnorm          E_pair         E_pair         E_bond        E_angle        E_dihed         TotEng    
         0   732.1747       0              2506.0392      0              0              0              31.456103      0              732.1747     
       190   75.460555      0              206.71506      0              0              0              7.7268905      0              75.460555    
Loop time of 0.0161009 on 1 procs for 190 steps with 21 atoms

98.3% CPU use with 1 MPI tasks x 1 OpenMP threads

Minimization stats:
  Stopping criterion = linesearch alpha is zero
  Energy initial, next-to-last, final = 
      732.174698268455   75.4605550659551   75.4605550659551
  Force two-norm initial, final = 2506.0392 206.71506
  Force max component initial, final = 1495.9374 108.08728
  Final line search alpha, max atom move = 1.6828894e-13 1.8189894e-11
  Iterations, force evaluations = 190 3648

MPI task timing breakdown:
Section |  min time  |  avg time  |  max time  |%varavg| %total
---------------------------------------------------------------
Pair    | 0          | 0          | 0          |   0.0 |  0.00
Bond    | 0.0047159  | 0.0047159  | 0.0047159  |   0.0 | 29.29
Neigh   | 0.0017034  | 0.0017034  | 0.0017034  |   0.0 | 10.58
Comm    | 0.00064255 | 0.00064255 | 0.00064255 |   0.0 |  3.99
Output  | 0          | 0          | 0          |   0.0 |  0.00
Modify  | 0.0024176  | 0.0024176  | 0.0024176  |   0.0 | 15.02
Other   |            | 0.006621   |            |       | 41.12

Nlocal:             21 ave          21 max          21 min
Histogram: 1 0 0 0 0 0 0 0 0 0
Nghost:              0 ave           0 max           0 min
Histogram: 1 0 0 0 0 0 0 0 0 0
Neighs:              0 ave           0 max           0 min
Histogram: 1 0 0 0 0 0 0 0 0 0

Total # of neighbors = 0
Ave neighs/atom = 0
Ave special neighs/atom = 5.4285714
Neighbor list builds = 949
Dangerous builds = 573
unfix stationary

reset_timestep 0
timestep 1e-6

fix integrate internals nvt temp 310.0 310.0 $(10.0*dt)
fix integrate internals nvt temp 310.0 310.0 9.999999999999999124e-06
velocity internals create 310.0 ${seed} dist gaussian
velocity internals create 310.0 1 dist gaussian


compute endForce endpointOmega reduce ave fy # Obtain force on endpoint
variable computedForce equal c_endForce # fix print cannot directly print out computes
thermo_style custom step c_endForce c_integrate_temp temp ke

neighbor 100.0 bin
run 0
WARNING: Communication cutoff 100 is shorter than a bond length based estimate of 101.5. This may lead to errors. (../comm.cpp:730)
Per MPI rank memory allocation (min/avg/max) = 7.496 | 7.496 | 7.496 Mbytes
   Step       c_endForce   c_integrate_temp      Temp          KinEng    
         0  -0.024656087    310            279            16.63292     
Loop time of 7.91e-07 on 1 procs for 0 steps with 21 atoms

0.0% CPU use with 1 MPI tasks x 1 OpenMP threads

MPI task timing breakdown:
Section |  min time  |  avg time  |  max time  |%varavg| %total
---------------------------------------------------------------
Pair    | 0          | 0          | 0          |   0.0 |  0.00
Bond    | 0          | 0          | 0          |   0.0 |  0.00
Neigh   | 0          | 0          | 0          |   0.0 |  0.00
Comm    | 0          | 0          | 0          |   0.0 |  0.00
Output  | 0          | 0          | 0          |   0.0 |  0.00
Modify  | 0          | 0          | 0          |   0.0 |  0.00
Other   |            | 7.91e-07   |            |       |100.00

Nlocal:             21 ave          21 max          21 min
Histogram: 1 0 0 0 0 0 0 0 0 0
Nghost:              0 ave           0 max           0 min
Histogram: 1 0 0 0 0 0 0 0 0 0
Neighs:              0 ave           0 max           0 min
Histogram: 1 0 0 0 0 0 0 0 0 0

Total # of neighbors = 0
Ave neighs/atom = 0
Ave special neighs/atom = 5.4285714
Neighbor list builds = 0
Dangerous builds = 0
velocity internals scale 310.0

variable sampFreq equal 10000000 # Sample force on endpoints every this-many timesteps.
variable numSamps equal 100 # Number of force samples to take.
variable numSteps equal "v_sampFreq * v_numSamps"
thermo ${sampFreq}
thermo 10000000

# Print out force on endpoint below
fix printForces all print ${sampFreq} "${computedForce}" file Out_Force_Extension/data/data_WLC_21_dispRatio_$(v_dispRatio:%.2f).txt screen no
fix printForces all print 10000000 "${computedForce}" file Out_Force_Extension/data/data_WLC_21_dispRatio_$(v_dispRatio:%.2f).txt screen no
fix printForces all print 10000000 "${computedForce}" file Out_Force_Extension/data/data_WLC_21_dispRatio_0.97.txt screen no

### Below is for validation purposes ###
compute blen all bond/local dist
compute end2end all reduce sum c_blen inputs local
variable totLen equal c_end2end

variable computedTemp equal c_integrate_temp
# variable sysTemp equal temp
# variable sysKE equal ke

variable validFile_end2end string "Out_Force_Extension/validation/end2end_WLC_21_Force_Extension_dispRatio_$(v_dispRatio:%.2f).txt"
Out_Force_Extension/validation/end2end_WLC_21_Force_Extension_dispRatio_0.97.txt
fix print_end2end all print ${sampFreq} "${totLen}" file ${validFile_end2end} screen no title "End-to-end arc length of WLC with 21 atoms"
fix print_end2end all print 10000000 "${totLen}" file ${validFile_end2end} screen no title "End-to-end arc length of WLC with 21 atoms"
fix print_end2end all print 10000000 "${totLen}" file Out_Force_Extension/validation/end2end_WLC_21_Force_Extension_dispRatio_0.97.txt screen no title "End-to-end arc length of WLC with 21 atoms"

variable validFile_internalsTemp string "Out_Force_Extension/validation/internalsTemp_WLC_21_Force_Extension_dispRatio_$(v_dispRatio:%.2f).txt"
Out_Force_Extension/validation/internalsTemp_WLC_21_Force_Extension_dispRatio_0.97.txt
fix print_internalsTemp all print ${sampFreq} "${computedTemp}" file ${validFile_internalsTemp} screen no title "Temperature (K) of internal atoms of WLC with 21 atoms"
fix print_internalsTemp all print 10000000 "${computedTemp}" file ${validFile_internalsTemp} screen no title "Temperature (K) of internal atoms of WLC with 21 atoms"
fix print_internalsTemp all print 10000000 "${computedTemp}" file Out_Force_Extension/validation/internalsTemp_WLC_21_Force_Extension_dispRatio_0.97.txt screen no title "Temperature (K) of internal atoms of WLC with 21 atoms"
### End of validation block ###


run ${numSteps}
run 1000000000
WARNING: Communication cutoff 100 is shorter than a bond length based estimate of 101.5. This may lead to errors. (../comm.cpp:730)
Per MPI rank memory allocation (min/avg/max) = 7.572 | 7.572 | 7.572 Mbytes
   Step       c_endForce   c_integrate_temp      Temp          KinEng    
         0  -0.024656087    310            279            16.63292     
  10000000   20.391121      332.61156      299.35041      17.846134    
  20000000   2.0672232      411.25935      370.13342      22.065948    
  30000000   1.3155772      330.52147      297.46932      17.733991    
  40000000   3.3733286      296.34378      266.7094       15.900201    
  50000000   1.8909815      341.28548      307.15693      18.311529    
  60000000   0.43035648     220.81252      198.73127      11.847603    
  70000000   1.3074375      307.03492      276.33143      16.47383     
  80000000   2.3218241      350.9199       315.82791      18.82846     
  90000000   1.5900708      244.20921      219.78829      13.102943    
 100000000   1.5726894      349.14161      314.22745      18.733047    
 110000000   0.95419052     302.99239      272.69315      16.256929    
 120000000  -12.305642      352.94203      317.64782      18.936957    
 130000000  -0.4367468      304.73122      274.25809      16.350226    
 140000000  -0.35545455     383.39681      345.05713      20.570995    
 150000000   1.4583254      307.02721      276.32449      16.473416    
 160000000   2.5218112      309.50523      278.55471      16.606374    
 170000000   2.6059123      344.68563      310.21706      18.493963    
 180000000  -23.409281      309.62423      278.6618       16.612758    
 190000000   1.9835031      238.63002      214.76702      12.803594    
 200000000   1.2979262      366.74099      330.06689      19.677334    
 210000000   1.4100781      282.98707      254.68836      15.183553    
 220000000   1.9291454      386.19688      347.57719      20.721232    
 230000000   3.3009896      425.50714      382.95643      22.830407    
 240000000   3.9487806      291.1666       262.04994      15.622422    
 250000000   4.6785547      325.20459      292.68414      17.448716    
 260000000   3.5591967      375.15255      337.63729      20.128653    
 270000000   3.5323126      353.72883      318.35595      18.979172    
 280000000   2.9731013      355.31753      319.78578      19.064413    
 290000000   4.5087887      303.55337      273.19803      16.287029    
 300000000   3.6028453      296.93638      267.24274      15.931997    
 310000000   5.770156       221.56386      199.40747      11.887916    
 320000000   6.5447803      468.2065       421.38585      25.121424    
 330000000   5.9606316      260.49688      234.44719      13.976851    
 340000000   5.6070765      188.67474      169.80727      10.123264    
 350000000   5.9062215      457.28516      411.55664      24.535444    
 360000000   3.9404781      210.11324      189.10192      11.273538    
 370000000   3.2341076      335.26412      301.73771      17.988456    
 380000000   3.5689747      268.82826      241.94544      14.423868    
 390000000   10.498115      349.50583      314.55525      18.752589    
 400000000   6.0707327      241.21167      217.0905       12.942111    
 410000000   6.4416592      321.59042      289.43138      17.254799    
 420000000   7.564728       395.01381      355.51243      21.1943      
 430000000   3.9799506      350.00951      315.00856      18.779614    
 440000000   2.6549594      278.37962      250.54166      14.936342    
 450000000   1.6330351      319.74479      287.77031      17.155773    
 460000000   7.3185839      310.53857      279.48471      16.661817    
 470000000   3.6572146      300.32746      270.29472      16.113944    
 480000000  -6.6025384      345.05207      310.54686      18.513624    
 490000000  -0.54575193     404.04097      363.63687      21.678649    
 500000000   4.0739853      237.84134      214.05721      12.761277    
 510000000   5.2097592      253.59793      228.23814      13.606691    
 520000000  -0.29884643     329.58136      296.62323      17.68355     
 530000000   5.2982434      271.86385      244.67746      14.586741    
 540000000   6.1866424      293.1495       263.83455      15.728814    
 550000000   2.9952915      353.22226      317.90004      18.951992    
 560000000   6.3969831      254.12735      228.71462      13.635097    
 570000000   6.8580431      345.30093      310.77083      18.526976    
 580000000   4.7840144      354.42363      318.98127      19.016451    
 590000000  -6.5531467      308.02738      277.22464      16.52708     
 600000000   4.0152469      230.07203      207.06483      12.344418    
 610000000  -1.4773783      174.70062      157.23056      9.3734886    
 620000000   2.6563177      218.63416      196.77074      11.730724    
 630000000  -14.127469      337.56322      303.8069       18.111813    
 640000000  -2.8278985      241.57127      217.41414      12.961405    
 650000000   3.1354639      312.72953      281.45658      16.779372    
 660000000   3.1916467      323.57974      291.22177      17.361536    
 670000000  -5.5051921      251.43737      226.29363      13.490767    
 680000000   3.156974       346.47724      311.82952      18.590091    
 690000000   5.2795345      296.5781       266.92029      15.912774    
 700000000   5.763884       383.24118      344.91706      20.562645    
 710000000   3.2058209      206.8838       186.19542      11.100263    
 720000000   3.5017333      296.33802      266.70422      15.899892    
 730000000  -4.0258218      342.94049      308.64644      18.400328    
 740000000   0.12536592     278.02084      250.21876      14.917092    
 750000000   7.7372097      329.96481      296.96833      17.704124    
 760000000   2.0885835      328.48439      295.63595      17.624692    
 770000000  -0.7397643      198.62235      178.76011      10.656999    
 780000000   2.4387523      290.81638      261.73475      15.603631    
 790000000  -0.20639989     246.64583      221.98124      13.233678    
 800000000   3.5884131      316.97374      285.27636      17.007093    
 810000000   7.2254852      299.37383      269.43645      16.062778    
 820000000   5.0971659      397.75163      357.97646      21.341197    
 830000000   2.5286893      310.73679      279.66311      16.672452    
 840000000   4.3956118      318.02555      286.223        17.063528    
 850000000   5.9900848      350.67798      315.61018      18.81548     
 860000000  -1.0277096      273.65156      246.2864       14.68266     
 870000000   0.79907954     282.55281      254.29753      15.160253    
 880000000   7.4564808      305.49507      274.94557      16.39121     
 890000000   7.4320019      264.01618      237.61456      14.165678    
 900000000   8.6390094      352.9977       317.69793      18.939943    
 910000000   4.9023814      349.15208      314.23687      18.733608    
 920000000   5.6053188      275.49112      247.94201      14.78136     
 930000000   3.9257633      319.48944      287.5405       17.142072    
 940000000   4.3575751      397.97712      358.17941      21.353295    
 950000000   8.0669532      244.62291      220.16062      13.12514     
 960000000  -2.0553357      268.63927      241.77534      14.413727    
 970000000   2.4039795      217.57181      195.81463      11.673724    
 980000000   4.5873921      387.62662      348.86395      20.797944    
 990000000   4.0254037      279.14826      251.23343      14.977583    
1000000000   0.4472889      377.52266      339.77039      20.25582     
Loop time of 2632.3 on 1 procs for 1000000000 steps with 21 atoms

Performance: 0.033 ns/day, 731.194 hours/ns, 379896.372 timesteps/s, 7.978 Matom-step/s
100.0% CPU use with 1 MPI tasks x 1 OpenMP threads

MPI task timing breakdown:
Section |  min time  |  avg time  |  max time  |%varavg| %total
---------------------------------------------------------------
Pair    | 0          | 0          | 0          |   0.0 |  0.00
Bond    | 1053.7     | 1053.7     | 1053.7     |   0.0 | 40.03
Neigh   | 0          | 0          | 0          |   0.0 |  0.00
Comm    | 68.762     | 68.762     | 68.762     |   0.0 |  2.61
Output  | 0.0014636  | 0.0014636  | 0.0014636  |   0.0 |  0.00
Modify  | 1216.5     | 1216.5     | 1216.5     |   0.0 | 46.21
Other   |            | 293.4      |            |       | 11.14

Nlocal:             21 ave          21 max          21 min
Histogram: 1 0 0 0 0 0 0 0 0 0
Nghost:              0 ave           0 max           0 min
Histogram: 1 0 0 0 0 0 0 0 0 0
Neighs:              0 ave           0 max           0 min
Histogram: 1 0 0 0 0 0 0 0 0 0

Total # of neighbors = 0
Ave neighs/atom = 0
Ave special neighs/atom = 5.4285714
Neighbor list builds = 0
Dangerous builds = 0
Total wall time: 0:43:52
