
variable totLength equal 10
variable dispDist equal "v_totLength * v_dispRatio / 2"

variable seed equal 1
units real
boundary p p p

atom_style molecular

region main block -500 500 -500 500 -500 500

create_box 21 main bond/types 20 angle/types 19 extra/bond/per/atom 2 extra/angle/per/atom 3 extra/special/per/atom 6
Created orthogonal box = (-500 -500 -500) to (500 500 500)
  1 by 1 by 1 MPI processor grid

molecule WLC_21 Structures/Production/relaxed_WLC_21.txt
Read molecule template WLC_21:
# Relaxed Production Model for Worm-Like Chain
  1 molecules
  0 fragments
  21 atoms with max type 21
  20 bonds with max type 20
  19 angles with max type 19
  0 dihedrals with max type 0
  0 impropers with max type 0
bond_style harmonic
angle_style harmonic
dihedral_style none

create_atoms 0 single 0 0 0 mol WLC_21 ${seed} rotate 0 0 0 1
create_atoms 0 single 0 0 0 mol WLC_21 1 rotate 0 0 0 1
Created 21 atoms
  using lattice units in orthogonal box = (-500 -500 -500) to (500 500 500)
  create_atoms CPU = 0.002 seconds

read_data Structures/Coeffs/coeffs_WLC_21.data add merge
Reading data file ...
  orthogonal box = (-500 -500 -500) to (500 500 500)
  1 by 1 by 1 MPI processor grid
Finding 1-2 1-3 1-4 neighbors ...
  special bond factors lj:    0        0        0       
  special bond factors coul:  0        0        0       
     3 = max # of 1-2 neighbors
     6 = max # of 1-3 neighbors
    18 = max # of 1-4 neighbors
    13 = max # of special neighbors
  special bonds CPU = 0.000 seconds
  read_data CPU = 0.009 seconds
bond_coeff * 0 1

group internals type 2:20
19 atoms in group internals
group endpointAlpha type 1
1 atoms in group endpointAlpha
group endpointOmega type 21
1 atoms in group endpointOmega
group endpoints subtract all internals
2 atoms in group endpoints

displace_atoms endpointAlpha move 0 ${dispDist} 0 units box
displace_atoms endpointAlpha move 0 1.25 0 units box
Displacing atoms ...
displace_atoms endpointOmega move 0 -${dispDist} 0 units box
displace_atoms endpointOmega move 0 -1.25 0 units box
Displacing atoms ...

variable k_restrain equal 200

fix restraint all arclengthrestraint WLC_21 ${k_restrain} ${totLength}
fix restraint all arclengthrestraint WLC_21 200 ${totLength}
fix restraint all arclengthrestraint WLC_21 200 10
fix_modify restraint energy yes

comm_modify cutoff 100

compute internalsTemp internals temp
thermo_style custom step pe ke fnorm epair epair ebond eangle edihed etotal

fix stationary endpoints setforce 0 0 0
min_modify dmax 10 norm max line backtrack # backtrack is necessary because minimizing points of restraint energy are degenerate
minimize 0 0 100000 100000
Neighbor list info ...
  update: every = 1 steps, delay = 0 steps, check = yes
  max neighbors/atom: 2000, page size: 100000
  master list distance cutoff = 0
  ghost atom cutoff = 100
  binsize = 1000, bins = 1 1 1
  1 neighbor lists, perpetual/occasional/extra = 1 0 0
  (1) fix arclengthrestraint, perpetual
      attributes: half, newton on
      pair build: half/bin/newton
      stencil: half/bin/3d
      bin: standard
WARNING: No pairwise cutoff or binsize set. Atom sorting therefore disabled. (../atom.cpp:2442)
Per MPI rank memory allocation (min/avg/max) = 8.621 | 8.621 | 8.621 Mbytes
   Step         PotEng         KinEng         Fnorm          E_pair         E_pair         E_bond        E_angle        E_dihed         TotEng    
         0   28.216643      0              2400.5422      0              0              0              25.747084      0              28.216643    
        93   27.508577      0              500.9686       0              0              0              25.062264      0              27.508577    
Loop time of 0.0100307 on 1 procs for 93 steps with 21 atoms

99.1% CPU use with 1 MPI tasks x 1 OpenMP threads

Minimization stats:
  Stopping criterion = linesearch alpha is zero
  Energy initial, next-to-last, final = 
      28.2166427506248   27.5085773299185   27.5085773299185
  Force two-norm initial, final = 2400.5422 500.9686
  Force max component initial, final = 1438.4353 266.09225
  Final line search alpha, max atom move = 8.4798883e-14 2.2564326e-11
  Iterations, force evaluations = 93 2367

MPI task timing breakdown:
Section |  min time  |  avg time  |  max time  |%varavg| %total
---------------------------------------------------------------
Pair    | 0          | 0          | 0          |   0.0 |  0.00
Bond    | 0.0030161  | 0.0030161  | 0.0030161  |   0.0 | 30.07
Neigh   | 0.00084205 | 0.00084205 | 0.00084205 |   0.0 |  8.39
Comm    | 0.00035359 | 0.00035359 | 0.00035359 |   0.0 |  3.53
Output  | 0          | 0          | 0          |   0.0 |  0.00
Modify  | 0.0015735  | 0.0015735  | 0.0015735  |   0.0 | 15.69
Other   |            | 0.004245   |            |       | 42.32

Nlocal:             21 ave          21 max          21 min
Histogram: 1 0 0 0 0 0 0 0 0 0
Nghost:              0 ave           0 max           0 min
Histogram: 1 0 0 0 0 0 0 0 0 0
Neighs:              0 ave           0 max           0 min
Histogram: 1 0 0 0 0 0 0 0 0 0

Total # of neighbors = 0
Ave neighs/atom = 0
Ave special neighs/atom = 5.4285714
Neighbor list builds = 465
Dangerous builds = 280
unfix stationary

reset_timestep 0
timestep 1e-6

fix integrate internals nvt temp 310.0 310.0 $(10.0*dt)
fix integrate internals nvt temp 310.0 310.0 9.999999999999999124e-06
velocity internals create 310.0 ${seed} dist gaussian
velocity internals create 310.0 1 dist gaussian


compute endForce endpointOmega reduce ave fy # Obtain force on endpoint
variable computedForce equal c_endForce # fix print cannot directly print out computes
thermo_style custom step c_endForce c_integrate_temp temp ke

neighbor 100.0 bin
run 0
WARNING: Communication cutoff 100 is shorter than a bond length based estimate of 101.5. This may lead to errors. (../comm.cpp:730)
Per MPI rank memory allocation (min/avg/max) = 7.496 | 7.496 | 7.496 Mbytes
   Step       c_endForce   c_integrate_temp      Temp          KinEng    
         0   0.15666996     310            279            16.63292     
Loop time of 8.11e-07 on 1 procs for 0 steps with 21 atoms

123.3% CPU use with 1 MPI tasks x 1 OpenMP threads

MPI task timing breakdown:
Section |  min time  |  avg time  |  max time  |%varavg| %total
---------------------------------------------------------------
Pair    | 0          | 0          | 0          |   0.0 |  0.00
Bond    | 0          | 0          | 0          |   0.0 |  0.00
Neigh   | 0          | 0          | 0          |   0.0 |  0.00
Comm    | 0          | 0          | 0          |   0.0 |  0.00
Output  | 0          | 0          | 0          |   0.0 |  0.00
Modify  | 0          | 0          | 0          |   0.0 |  0.00
Other   |            | 8.11e-07   |            |       |100.00

Nlocal:             21 ave          21 max          21 min
Histogram: 1 0 0 0 0 0 0 0 0 0
Nghost:              0 ave           0 max           0 min
Histogram: 1 0 0 0 0 0 0 0 0 0
Neighs:              0 ave           0 max           0 min
Histogram: 1 0 0 0 0 0 0 0 0 0

Total # of neighbors = 0
Ave neighs/atom = 0
Ave special neighs/atom = 5.4285714
Neighbor list builds = 0
Dangerous builds = 0
velocity internals scale 310.0

variable sampFreq equal 10000000 # Sample force on endpoints every this-many timesteps.
variable numSamps equal 100 # Number of force samples to take.
variable numSteps equal "v_sampFreq * v_numSamps"
thermo ${sampFreq}
thermo 10000000

# Print out force on endpoint below
fix printForces all print ${sampFreq} "${computedForce}" file Out_Force_Extension/data/data_WLC_21_dispRatio_$(v_dispRatio:%.2f).txt screen no
fix printForces all print 10000000 "${computedForce}" file Out_Force_Extension/data/data_WLC_21_dispRatio_$(v_dispRatio:%.2f).txt screen no
fix printForces all print 10000000 "${computedForce}" file Out_Force_Extension/data/data_WLC_21_dispRatio_0.25.txt screen no

### Below is for validation purposes ###
compute blen all bond/local dist
compute end2end all reduce sum c_blen inputs local
variable totLen equal c_end2end

variable computedTemp equal c_integrate_temp
# variable sysTemp equal temp
# variable sysKE equal ke

variable validFile_end2end string "Out_Force_Extension/validation/end2end_WLC_21_Force_Extension_dispRatio_$(v_dispRatio:%.2f).txt"
Out_Force_Extension/validation/end2end_WLC_21_Force_Extension_dispRatio_0.25.txt
fix print_end2end all print ${sampFreq} "${totLen}" file ${validFile_end2end} screen no title "End-to-end arc length of WLC with 21 atoms"
fix print_end2end all print 10000000 "${totLen}" file ${validFile_end2end} screen no title "End-to-end arc length of WLC with 21 atoms"
fix print_end2end all print 10000000 "${totLen}" file Out_Force_Extension/validation/end2end_WLC_21_Force_Extension_dispRatio_0.25.txt screen no title "End-to-end arc length of WLC with 21 atoms"

variable validFile_internalsTemp string "Out_Force_Extension/validation/internalsTemp_WLC_21_Force_Extension_dispRatio_$(v_dispRatio:%.2f).txt"
Out_Force_Extension/validation/internalsTemp_WLC_21_Force_Extension_dispRatio_0.25.txt
fix print_internalsTemp all print ${sampFreq} "${computedTemp}" file ${validFile_internalsTemp} screen no title "Temperature (K) of internal atoms of WLC with 21 atoms"
fix print_internalsTemp all print 10000000 "${computedTemp}" file ${validFile_internalsTemp} screen no title "Temperature (K) of internal atoms of WLC with 21 atoms"
fix print_internalsTemp all print 10000000 "${computedTemp}" file Out_Force_Extension/validation/internalsTemp_WLC_21_Force_Extension_dispRatio_0.25.txt screen no title "Temperature (K) of internal atoms of WLC with 21 atoms"
### End of validation block ###


run ${numSteps}
run 1000000000
WARNING: Communication cutoff 100 is shorter than a bond length based estimate of 101.5. This may lead to errors. (../comm.cpp:730)
Per MPI rank memory allocation (min/avg/max) = 7.572 | 7.572 | 7.572 Mbytes
   Step       c_endForce   c_integrate_temp      Temp          KinEng    
         0   0.15666996     310            279            16.63292     
  10000000  -5.8711362      274.7853       247.30677      14.74349     
  20000000   0.057184838    300.9897       270.89073      16.149476    
  30000000  -3.7850729      362.04732      325.84259      19.425497    
  40000000   0.70173008     333.92487      300.53238      17.916599    
  50000000  -1.6950113      229.5276       206.57484      12.315207    
  60000000   1.6441596      444.36431      399.92788      23.842181    
  70000000   4.606304       266.50739      239.85665      14.299342    
  80000000  -3.9595072      339.2518       305.32662      18.202413    
  90000000   2.2215551      278.61761      250.75585      14.949111    
 100000000   0.47690659     233.91584      210.52426      12.550656    
 110000000   1.6989659      256.44059      230.79653      13.759212    
 120000000  -3.697707       260.11623      234.10461      13.956427    
 130000000  -4.3946861      366.68978      330.0208       19.674586    
 140000000  -7.0916092      423.98465      381.58618      22.748719    
 150000000   2.0056425      303.17091      272.85382      16.266508    
 160000000  -1.6930109      337.31783      303.58604      18.098647    
 170000000  -1.4692953      293.59423      264.2348       15.752675    
 180000000   2.4215042      341.00082      306.90074      18.296256    
 190000000  -1.6479005      272.70996      245.43897      14.632139    
 200000000   0.58585764     459.10567      413.19511      24.633122    
 210000000   4.6840673      360.99235      324.89311      19.368893    
 220000000   2.4090081      277.51691      249.76522      14.890054    
 230000000   2.4533976      289.43782      260.49404      15.529665    
 240000000  -2.2372928      348.39366      313.5543       18.692916    
 250000000   3.3554053      269.53986      242.58587      14.462048    
 260000000   1.7215478      311.05539      279.94985      16.689547    
 270000000  -1.7272968      324.81441      292.33296      17.427781    
 280000000  -0.69517358     272.18769      244.96892      14.604116    
 290000000  -3.0199214      224.35497      201.91947      12.037672    
 300000000  -1.3702702      218.88798      196.99918      11.744343    
 310000000  -2.6959561      411.98586      370.78728      22.104929    
 320000000  -5.5899504      348.72706      313.85435      18.710804    
 330000000  -2.0287101      295.4665       265.91985      15.853131    
 340000000  -0.56621164     290.17099      261.15389      15.569003    
 350000000  -2.137191       259.11554      233.20398      13.902736    
 360000000  -4.3029003      277.33617      249.60255      14.880356    
 370000000  -3.5824624      332.14716      298.93244      17.821217    
 380000000   2.4707678      331.31355      298.1822       17.77649     
 390000000  -7.7176149      379.01694      341.11524      20.335995    
 400000000  -4.3001942      284.38856      255.94971      15.258749    
 410000000   1.8041596      339.9478       305.95302      18.239757    
 420000000  -5.8704902      345.40435      310.86392      18.532526    
 430000000  -1.991054       298.40499      268.56449      16.010795    
 440000000   6.4473566      301.83497      271.65148      16.194829    
 450000000  -5.8649438      358.43465      322.59119      19.231661    
 460000000   3.9945423      290.45432      261.40889      15.584205    
 470000000   5.3572159      332.92709      299.63438      17.863064    
 480000000   1.1660887      226.40702      203.76631      12.147774    
 490000000   1.4186798      312.67162      281.40446      16.776265    
 500000000   1.8632802      324.0723       291.66507      17.387963    
 510000000  -1.1569368      210.04122      189.0371       11.269673    
 520000000   1.8700006      378.46217      340.61595      20.306229    
 530000000   0.68521101     421.39054      379.25149      22.609533    
 540000000   3.6728645      408.16642      367.34978      21.899998    
 550000000  -2.1076398      243.21021      218.88919      13.049342    
 560000000  -3.1961185      339.11292      305.20163      18.194962    
 570000000  -2.1935606      432.65912      389.3932       23.214144    
 580000000   5.6315645      378.96834      341.0715       20.333387    
 590000000   5.8242724      348.1219       313.30971      18.678335    
 600000000  -1.7415662      241.14101      217.02691      12.93832     
 610000000  -0.48671552     250.9687       225.87183      13.465621    
 620000000   1.0543072      364.46253      328.01628      19.555084    
 630000000  -1.3664176      256.56969      230.91272      13.766139    
 640000000  -2.5164181      249.978        224.9802       13.412465    
 650000000   0.18989237     355.17902      319.66112      19.056982    
 660000000   3.0761745      394.19727      354.77755      21.15049     
 670000000   3.4330368      277.12437      249.41193      14.868992    
 680000000  -5.6481307      194.83844      175.3546       10.453975    
 690000000   6.4165728      337.55365      303.79828      18.111299    
 700000000  -5.6798489      335.03061      301.52755      17.975927    
 710000000   6.653226       377.25794      339.53214      20.241616    
 720000000   1.6214959      327.50037      294.75033      17.571895    
 730000000  -18.982464      329.38761      296.44885      17.673154    
 740000000   1.4380741      250.64882      225.58394      13.448458    
 750000000   1.2612734      207.16738      186.45064      11.115479    
 760000000  -0.017173055    340.80511      306.7246       18.285756    
 770000000   1.9709532      346.13753      311.52377      18.571864    
 780000000  -2.2031791      412.57608      371.31847      22.136597    
 790000000  -1.4571725      297.43316      267.68985      15.958652    
 800000000   4.5296814      266.76012      240.0841       14.312902    
 810000000   7.2072779      279.04814      251.14332      14.972211    
 820000000   4.3307268      352.90811      317.6173       18.935137    
 830000000   1.7290877      265.11902      238.60712      14.22485     
 840000000  -18.578719      302.69036      272.42132      16.240724    
 850000000   2.9342126      296.26353      266.63718      15.895896    
 860000000   3.60606        314.04218      282.63797      16.849802    
 870000000  -0.49535944     254.10407      228.69367      13.633848    
 880000000   1.6932531      400.74265      360.66838      21.501679    
 890000000  -0.11992506     252.0557       226.85013      13.523943    
 900000000   5.0674709      252.77224      227.49502      13.562389    
 910000000   7.1785464      198.506        178.6554       10.650756    
 920000000  -1.1524009      420.90135      378.81121      22.583285    
 930000000   3.3110035      273.10903      245.79813      14.653551    
 940000000   2.7896998      291.67881      262.51093      15.649905    
 950000000  -4.0138075      181.71803      163.54623      9.7500048    
 960000000   2.7622664      269.21804      242.29623      14.444781    
 970000000  -0.38647226     191.57038      172.41334      10.278628    
 980000000   1.7753093      242.47171      218.22454      13.009718    
 990000000   1.5895058      307.2426       276.51834      16.484973    
1000000000   0.51766177     358.0274       322.22466      19.20981     
Loop time of 2585.49 on 1 procs for 1000000000 steps with 21 atoms

Performance: 0.033 ns/day, 718.191 hours/ns, 386774.356 timesteps/s, 8.122 Matom-step/s
100.0% CPU use with 1 MPI tasks x 1 OpenMP threads

MPI task timing breakdown:
Section |  min time  |  avg time  |  max time  |%varavg| %total
---------------------------------------------------------------
Pair    | 0          | 0          | 0          |   0.0 |  0.00
Bond    | 985.09     | 985.09     | 985.09     |   0.0 | 38.10
Neigh   | 0          | 0          | 0          |   0.0 |  0.00
Comm    | 68.779     | 68.779     | 68.779     |   0.0 |  2.66
Output  | 0.0017649  | 0.0017649  | 0.0017649  |   0.0 |  0.00
Modify  | 1233.3     | 1233.3     | 1233.3     |   0.0 | 47.70
Other   |            | 298.3      |            |       | 11.54

Nlocal:             21 ave          21 max          21 min
Histogram: 1 0 0 0 0 0 0 0 0 0
Nghost:              0 ave           0 max           0 min
Histogram: 1 0 0 0 0 0 0 0 0 0
Neighs:              0 ave           0 max           0 min
Histogram: 1 0 0 0 0 0 0 0 0 0

Total # of neighbors = 0
Ave neighs/atom = 0
Ave special neighs/atom = 5.4285714
Neighbor list builds = 0
Dangerous builds = 0
Total wall time: 0:43:05
