
variable totLength equal 10
variable dispDist equal "v_totLength * v_dispRatio / 2"

variable seed equal 1
units real
boundary p p p

atom_style molecular

region main block -500 500 -500 500 -500 500

create_box 11 main bond/types 10 angle/types 9 extra/bond/per/atom 2 extra/angle/per/atom 3 extra/special/per/atom 6
Created orthogonal box = (-500 -500 -500) to (500 500 500)
  1 by 1 by 1 MPI processor grid

molecule WLC_11 Structures/Production/relaxed_WLC_11.txt
Read molecule template WLC_11:
# Relaxed Production Model for Worm-Like Chain
  1 molecules
  0 fragments
  11 atoms with max type 11
  10 bonds with max type 10
  9 angles with max type 9
  0 dihedrals with max type 0
  0 impropers with max type 0
bond_style harmonic
angle_style harmonic
dihedral_style none

create_atoms 0 single 0 0 0 mol WLC_11 ${seed} rotate 0 0 0 1
create_atoms 0 single 0 0 0 mol WLC_11 1 rotate 0 0 0 1
Created 11 atoms
  using lattice units in orthogonal box = (-500 -500 -500) to (500 500 500)
  create_atoms CPU = 0.001 seconds

read_data Structures/Coeffs/coeffs_WLC_11.data add merge
Reading data file ...
  orthogonal box = (-500 -500 -500) to (500 500 500)
  1 by 1 by 1 MPI processor grid
Finding 1-2 1-3 1-4 neighbors ...
  special bond factors lj:    0        0        0       
  special bond factors coul:  0        0        0       
     3 = max # of 1-2 neighbors
     6 = max # of 1-3 neighbors
    18 = max # of 1-4 neighbors
    13 = max # of special neighbors
  special bonds CPU = 0.000 seconds
  read_data CPU = 0.001 seconds
bond_coeff * 0 1

group internals type 2:10
9 atoms in group internals
group endpointAlpha type 1
1 atoms in group endpointAlpha
group endpointOmega type 11
1 atoms in group endpointOmega
group endpoints subtract all internals
2 atoms in group endpoints

displace_atoms endpointAlpha move 0 ${dispDist} 0 units box
displace_atoms endpointAlpha move 0 1.25 0 units box
Displacing atoms ...
displace_atoms endpointOmega move 0 -${dispDist} 0 units box
displace_atoms endpointOmega move 0 -1.25 0 units box
Displacing atoms ...

variable k_restrain equal 100

fix restraint all arclengthrestraint WLC_11 ${k_restrain} ${totLength}
fix restraint all arclengthrestraint WLC_11 100 ${totLength}
fix restraint all arclengthrestraint WLC_11 100 10
fix_modify restraint energy yes

comm_modify cutoff 100

compute internalsTemp internals temp
thermo_style custom step pe ke fnorm epair epair ebond eangle edihed etotal

fix stationary endpoints setforce 0 0 0
min_modify dmax 10 norm max line backtrack # backtrack is necessary because minimizing points of restraint energy are degenerate
minimize 0 0 100000 100000
Neighbor list info ...
  update: every = 1 steps, delay = 0 steps, check = yes
  max neighbors/atom: 2000, page size: 100000
  master list distance cutoff = 0
  ghost atom cutoff = 100
  binsize = 1000, bins = 1 1 1
  1 neighbor lists, perpetual/occasional/extra = 1 0 0
  (1) fix arclengthrestraint, perpetual
      attributes: half, newton on
      pair build: half/bin/newton
      stencil: half/bin/3d
      bin: standard
WARNING: No pairwise cutoff or binsize set. Atom sorting therefore disabled. (../atom.cpp:2442)
Per MPI rank memory allocation (min/avg/max) = 8.621 | 8.621 | 8.621 Mbytes
   Step         PotEng         KinEng         Fnorm          E_pair         E_pair         E_bond        E_angle        E_dihed         TotEng    
         0   2.0412204      0              3066.2952      0              0              0              2.0197117      0              2.0412204    
       233   1.4757963      0              1.1361644      0              0              0              1.4744373      0              1.4757963    
Loop time of 0.00895897 on 1 procs for 233 steps with 11 atoms

93.5% CPU use with 1 MPI tasks x 1 OpenMP threads

Minimization stats:
  Stopping criterion = energy tolerance
  Energy initial, next-to-last, final = 
       2.0412204455278   1.47579629666765   1.47579629666765
  Force two-norm initial, final = 3066.2952 1.1361644
  Force max component initial, final = 2062.3258 0.54392267
  Final line search alpha, max atom move = 1.4901161e-08 8.1050794e-09
  Iterations, force evaluations = 233 3417

MPI task timing breakdown:
Section |  min time  |  avg time  |  max time  |%varavg| %total
---------------------------------------------------------------
Pair    | 0          | 0          | 0          |   0.0 |  0.00
Bond    | 0.00243    | 0.00243    | 0.00243    |   0.0 | 27.12
Neigh   | 0.00073728 | 0.00073728 | 0.00073728 |   0.0 |  8.23
Comm    | 0.00049491 | 0.00049491 | 0.00049491 |   0.0 |  5.52
Output  | 0          | 0          | 0          |   0.0 |  0.00
Modify  | 0.001328   | 0.001328   | 0.001328   |   0.0 | 14.82
Other   |            | 0.003969   |            |       | 44.30

Nlocal:             11 ave          11 max          11 min
Histogram: 1 0 0 0 0 0 0 0 0 0
Nghost:              0 ave           0 max           0 min
Histogram: 1 0 0 0 0 0 0 0 0 0
Neighs:              0 ave           0 max           0 min
Histogram: 1 0 0 0 0 0 0 0 0 0

Total # of neighbors = 0
Ave neighs/atom = 0
Ave special neighs/atom = 4.9090909
Neighbor list builds = 709
Dangerous builds = 360
unfix stationary

reset_timestep 0
timestep 1e-6

fix integrate internals nvt temp 310.0 310.0 $(10.0*dt)
fix integrate internals nvt temp 310.0 310.0 9.999999999999999124e-06
velocity internals create 310.0 ${seed} dist gaussian
velocity internals create 310.0 1 dist gaussian


compute endForce endpointOmega reduce ave fy # Obtain force on endpoint
variable computedForce equal c_endForce # fix print cannot directly print out computes
thermo_style custom step c_endForce c_integrate_temp temp ke

neighbor 100.0 bin
run 0
WARNING: Communication cutoff 100 is shorter than a bond length based estimate of 101.5. This may lead to errors. (../comm.cpp:730)
Per MPI rank memory allocation (min/avg/max) = 7.496 | 7.496 | 7.496 Mbytes
   Step       c_endForce   c_integrate_temp      Temp          KinEng    
         0  -0.14543819     310            248            7.3924089    
Loop time of 8.22e-07 on 1 procs for 0 steps with 11 atoms

0.0% CPU use with 1 MPI tasks x 1 OpenMP threads

MPI task timing breakdown:
Section |  min time  |  avg time  |  max time  |%varavg| %total
---------------------------------------------------------------
Pair    | 0          | 0          | 0          |   0.0 |  0.00
Bond    | 0          | 0          | 0          |   0.0 |  0.00
Neigh   | 0          | 0          | 0          |   0.0 |  0.00
Comm    | 0          | 0          | 0          |   0.0 |  0.00
Output  | 0          | 0          | 0          |   0.0 |  0.00
Modify  | 0          | 0          | 0          |   0.0 |  0.00
Other   |            | 8.22e-07   |            |       |100.00

Nlocal:             11 ave          11 max          11 min
Histogram: 1 0 0 0 0 0 0 0 0 0
Nghost:              0 ave           0 max           0 min
Histogram: 1 0 0 0 0 0 0 0 0 0
Neighs:              0 ave           0 max           0 min
Histogram: 1 0 0 0 0 0 0 0 0 0

Total # of neighbors = 0
Ave neighs/atom = 0
Ave special neighs/atom = 4.9090909
Neighbor list builds = 0
Dangerous builds = 0
velocity internals scale 310.0

variable sampFreq equal 10000000 # Sample force on endpoints every this-many timesteps.
variable numSamps equal 100 # Number of force samples to take.
variable numSteps equal "v_sampFreq * v_numSamps"
thermo ${sampFreq}
thermo 10000000

# Print out force on endpoint below
fix printForces all print ${sampFreq} "${computedForce}" file Out_Force_Extension/data/data_WLC_11_dispRatio_$(v_dispRatio:%.2f).txt screen no
fix printForces all print 10000000 "${computedForce}" file Out_Force_Extension/data/data_WLC_11_dispRatio_$(v_dispRatio:%.2f).txt screen no
fix printForces all print 10000000 "${computedForce}" file Out_Force_Extension/data/data_WLC_11_dispRatio_0.25.txt screen no

### Below is for validation purposes ###
compute blen all bond/local dist
compute end2end all reduce sum c_blen inputs local
variable totLen equal c_end2end

variable computedTemp equal c_integrate_temp
# variable sysTemp equal temp
# variable sysKE equal ke

variable validFile_end2end string "Out_Force_Extension/validation/end2end_WLC_11_Force_Extension_dispRatio_$(v_dispRatio:%.2f).txt"
Out_Force_Extension/validation/end2end_WLC_11_Force_Extension_dispRatio_0.25.txt
fix print_end2end all print ${sampFreq} "${totLen}" file ${validFile_end2end} screen no title "End-to-end arc length of WLC with 11 atoms"
fix print_end2end all print 10000000 "${totLen}" file ${validFile_end2end} screen no title "End-to-end arc length of WLC with 11 atoms"
fix print_end2end all print 10000000 "${totLen}" file Out_Force_Extension/validation/end2end_WLC_11_Force_Extension_dispRatio_0.25.txt screen no title "End-to-end arc length of WLC with 11 atoms"

variable validFile_internalsTemp string "Out_Force_Extension/validation/internalsTemp_WLC_11_Force_Extension_dispRatio_$(v_dispRatio:%.2f).txt"
Out_Force_Extension/validation/internalsTemp_WLC_11_Force_Extension_dispRatio_0.25.txt
fix print_internalsTemp all print ${sampFreq} "${computedTemp}" file ${validFile_internalsTemp} screen no title "Temperature (K) of internal atoms of WLC with 11 atoms"
fix print_internalsTemp all print 10000000 "${computedTemp}" file ${validFile_internalsTemp} screen no title "Temperature (K) of internal atoms of WLC with 11 atoms"
fix print_internalsTemp all print 10000000 "${computedTemp}" file Out_Force_Extension/validation/internalsTemp_WLC_11_Force_Extension_dispRatio_0.25.txt screen no title "Temperature (K) of internal atoms of WLC with 11 atoms"
### End of validation block ###


run ${numSteps}
run 1000000000
WARNING: Communication cutoff 100 is shorter than a bond length based estimate of 101.5. This may lead to errors. (../comm.cpp:730)
Per MPI rank memory allocation (min/avg/max) = 7.572 | 7.572 | 7.572 Mbytes
   Step       c_endForce   c_integrate_temp      Temp          KinEng    
         0  -0.14543819     310            248            7.3924089    
  10000000   1.0219601      330.567        264.4536       7.8828594    
  20000000   1.5387222      238.28532      190.62825      5.6822661    
  30000000   1.2510063      332.44695      265.95756      7.9276898    
  40000000  -0.21557435     347.53381      278.02705      8.2874583    
  50000000  -0.30371166     321.76489      257.41191      7.6729602    
  60000000  -0.9439989      222.27571      177.82057      5.3004933    
  70000000   1.0097187      261.8632       209.49056      6.2445156    
  80000000   2.9497298      385.11689      308.09351      9.1836824    
  90000000   1.2956529      272.39049      217.91239      6.4955545    
 100000000   1.7461698      432.01208      345.60967      10.301968    
 110000000   2.6392702      294.70747      235.76597      7.0277359    
 120000000   0.047195224    210.09057      168.07245      5.0099206    
 130000000   0.32799349     415.2328       332.18624      9.9018408    
 140000000   1.829769       328.50053      262.80043      7.8335815    
 150000000   1.3852309      186.43246      149.14597      4.4457581    
 160000000   0.24427038     273.5951       218.87608      6.5242802    
 170000000  -0.039091493    283.82727      227.06181      6.7682814    
 180000000   0.56885424     217.29316      173.83453      5.1816772    
 190000000  -0.95263596     213.33554      170.66843      5.0873017    
 200000000  -0.68733654     195.83052      156.66441      4.6698686    
 210000000   1.4509271      142.44182      113.95345      3.396736     
 220000000   2.7116558      227.66686      182.13349      5.4290532    
 230000000   0.32560158     264.17528      211.34023      6.2996507    
 240000000  -1.0870047      403.14634      322.51707      9.6136213    
 250000000  -0.0047470959   467.09731      373.67785      11.138627    
 260000000   0.47006673     333.82826      267.0626       7.960629     
 270000000   1.0354957      348.11692      278.49353      8.3013632    
 280000000   1.0101931      219.47949      175.58359      5.2338134    
 290000000   1.6648356      333.57742      266.86194      7.9546474    
 300000000   0.84181387     340.75154      272.60123      8.125725     
 310000000  -0.67607696     231.90699      185.52559      5.5301654    
 320000000  -0.19031579     279.24474      223.39579      6.6590042    
 330000000  -0.66391507     340.74465      272.59572      8.1255607    
 340000000  -2.8129804      347.59712      278.0777       8.2889679    
 350000000  -1.6634615      277.34058      221.87246      6.6135967    
 360000000  -0.44520223     209.92779      167.94223      5.006039     
 370000000  -1.7155966      324.23096      259.38477      7.7317673    
 380000000  -0.1776081      435.25321      348.20257      10.379257    
 390000000   0.87793009     412.58053      330.06442      9.8385935    
 400000000   0.65255066     285.02185      228.01748      6.7967681    
 410000000  -1.8017923      276.57857      221.26285      6.5954253    
 420000000  -1.1780605      318.14247      254.51397      7.5865781    
 430000000  -0.20772496     330.17419      264.13935      7.8734922    
 440000000  -1.6574706      238.30523      190.64419      5.6827411    
 450000000  -1.2427487      319.17192      255.33753      7.6111269    
 460000000   1.820082       323.3627       258.69016      7.7110623    
 470000000  -0.91620747     225.3073       180.24584      5.3727861    
 480000000  -2.8989521      218.37564      174.70051      5.2074903    
 490000000   1.2597644      313.03522      250.42818      7.4647883    
 500000000  -0.65886631     218.41359      174.73087      5.2083954    
 510000000  -1.9286794      325.22914      260.18331      7.7555703    
 520000000  -0.62492957     342.57016      274.05613      8.1690926    
 530000000   0.95062736     328.63767      262.91014      7.8368519    
 540000000   0.14506004     410.90588      328.72471      9.7986591    
 550000000  -2.1107916      356.48307      285.18645      8.5008664    
 560000000  -3.2220292      415.56528      332.45222      9.9097692    
 570000000   0.11839529     215.33192      172.26553      5.1349083    
 580000000   0.83327993     201.36604      161.09283      4.8018713    
 590000000  -1.7889041      468.51851      374.8148       11.172517    
 600000000  -2.2812538      330.28314      264.22651      7.8760904    
 610000000  -2.7201572      435.56775      348.4542       10.386758    
 620000000  -3.8365912      417.79566      334.23653      9.9629561    
 630000000  -2.0291593      324.28132      259.42505      7.7329681    
 640000000   1.8217941      242.43467      193.94774      5.7812137    
 650000000   9.9956686      197.04417      157.63534      4.69881      
 660000000  -1.3021532      404.50561      323.60448      9.646035     
 670000000  -1.71604        342.61385      274.09108      8.1701345    
 680000000  -3.048821       245.99772      196.79817      5.8661797    
 690000000   1.3589585      312.41029      249.92824      7.449886     
 700000000   0.95585298     260.16962      208.13569      6.2041297    
 710000000   2.0935378      419.40268      335.52214      10.001278    
 720000000   2.156031       264.1507       211.32056      6.2990645    
 730000000   0.0098580296   228.1604       182.52832      5.4408225    
 740000000  -1.6669279      208.87781      167.10224      4.9810005    
 750000000   1.4031464      231.17733      184.94186      5.5127657    
 760000000   1.5320965      374.91478      299.93183      8.9403981    
 770000000   1.3351745      284.26105      227.40884      6.7786256    
 780000000   2.066297       338.84569      271.07655      8.0802772    
 790000000   0.16370142     290.49853      232.39882      6.9273674    
 800000000  -0.861772       427.46441      341.97152      10.193522    
 810000000   0.13914027     170.84677      136.67742      4.0740942    
 820000000   0.22482368     190.74609      152.59688      4.548623     
 830000000  -1.1774081      507.92589      406.34071      12.112245    
 840000000  -2.085932       419.33479      335.46783      9.9996587    
 850000000  -0.83674111     360.03437      288.02749      8.5855525    
 860000000  -1.5077821      514.18731      411.34985      12.261558    
 870000000   0.10571994     277.78893      222.23114      6.6242883    
 880000000   0.44057007     258.14724      206.51779      6.1559032    
 890000000  -2.2438008      491.09358      392.87486      11.710853    
 900000000   0.54510293     243.5247       194.81976      5.807207     
 910000000  -0.73399179     434.377        347.5016       10.358363    
 920000000   0.39129003     416.23056      332.98445      9.925634     
 930000000   1.1242379      360.67431      288.53945      8.6008128    
 940000000  -0.37843869     197.89809      158.31847      4.7191729    
 950000000  -1.326384       272.2852       217.82816      6.4930438    
 960000000  -0.13059789     221.30086      177.04069      5.2772467    
 970000000  -0.55032497     232.69848      186.15879      5.5490398    
 980000000  -2.2015226      399.33115      319.46492      9.5226425    
 990000000  -0.26102189     333.4065       266.7252       7.9505716    
1000000000  -0.95725913     185.7195       148.5756       4.4287563    
Loop time of 1564.91 on 1 procs for 1000000000 steps with 11 atoms

Performance: 0.055 ns/day, 434.698 hours/ns, 639012.997 timesteps/s, 7.029 Matom-step/s
100.0% CPU use with 1 MPI tasks x 1 OpenMP threads

MPI task timing breakdown:
Section |  min time  |  avg time  |  max time  |%varavg| %total
---------------------------------------------------------------
Pair    | 0          | 0          | 0          |   0.0 |  0.00
Bond    | 503.61     | 503.61     | 503.61     |   0.0 | 32.18
Neigh   | 0          | 0          | 0          |   0.0 |  0.00
Comm    | 68.8       | 68.8       | 68.8       |   0.0 |  4.40
Output  | 0.0017988  | 0.0017988  | 0.0017988  |   0.0 |  0.00
Modify  | 777.11     | 777.11     | 777.11     |   0.0 | 49.66
Other   |            | 215.4      |            |       | 13.76

Nlocal:             11 ave          11 max          11 min
Histogram: 1 0 0 0 0 0 0 0 0 0
Nghost:              0 ave           0 max           0 min
Histogram: 1 0 0 0 0 0 0 0 0 0
Neighs:              0 ave           0 max           0 min
Histogram: 1 0 0 0 0 0 0 0 0 0

Total # of neighbors = 0
Ave neighs/atom = 0
Ave special neighs/atom = 4.9090909
Neighbor list builds = 0
Dangerous builds = 0
Total wall time: 0:26:05
