
variable totLength equal 10
variable dispDist equal "v_totLength * v_dispRatio / 2"

variable seed equal 1
units real
boundary p p p

atom_style molecular

region main block -500 500 -500 500 -500 500

create_box 21 main bond/types 20 angle/types 19 extra/bond/per/atom 2 extra/angle/per/atom 3 extra/special/per/atom 6
Created orthogonal box = (-500 -500 -500) to (500 500 500)
  1 by 1 by 1 MPI processor grid

molecule WLC_21 Structures/Production/relaxed_WLC_21.txt
Read molecule template WLC_21:
# Relaxed Production Model for Worm-Like Chain
  1 molecules
  0 fragments
  21 atoms with max type 21
  20 bonds with max type 20
  19 angles with max type 19
  0 dihedrals with max type 0
  0 impropers with max type 0
bond_style harmonic
angle_style harmonic
dihedral_style none

create_atoms 0 single 0 0 0 mol WLC_21 ${seed} rotate 0 0 0 1
create_atoms 0 single 0 0 0 mol WLC_21 1 rotate 0 0 0 1
Created 21 atoms
  using lattice units in orthogonal box = (-500 -500 -500) to (500 500 500)
  create_atoms CPU = 0.001 seconds

read_data Structures/Coeffs/coeffs_WLC_21.data add merge
Reading data file ...
  orthogonal box = (-500 -500 -500) to (500 500 500)
  1 by 1 by 1 MPI processor grid
Finding 1-2 1-3 1-4 neighbors ...
  special bond factors lj:    0        0        0       
  special bond factors coul:  0        0        0       
     3 = max # of 1-2 neighbors
     6 = max # of 1-3 neighbors
    18 = max # of 1-4 neighbors
    13 = max # of special neighbors
  special bonds CPU = 0.000 seconds
  read_data CPU = 0.009 seconds
bond_coeff * 0 1

group internals type 2:20
19 atoms in group internals
group endpointAlpha type 1
1 atoms in group endpointAlpha
group endpointOmega type 21
1 atoms in group endpointOmega
group endpoints subtract all internals
2 atoms in group endpoints

displace_atoms endpointAlpha move 0 ${dispDist} 0 units box
displace_atoms endpointAlpha move 0 4.5 0 units box
Displacing atoms ...
displace_atoms endpointOmega move 0 -${dispDist} 0 units box
displace_atoms endpointOmega move 0 -4.5 0 units box
Displacing atoms ...

variable k_restrain equal 200

fix restraint all arclengthrestraint WLC_21 ${k_restrain} ${totLength}
fix restraint all arclengthrestraint WLC_21 200 ${totLength}
fix restraint all arclengthrestraint WLC_21 200 10
fix_modify restraint energy yes

comm_modify cutoff 100

compute internalsTemp internals temp
thermo_style custom step pe ke fnorm epair epair ebond eangle edihed etotal

fix stationary endpoints setforce 0 0 0
min_modify dmax 10 norm max line backtrack # backtrack is necessary because minimizing points of restraint energy are degenerate
minimize 0 0 100000 100000
Neighbor list info ...
  update: every = 1 steps, delay = 0 steps, check = yes
  max neighbors/atom: 2000, page size: 100000
  master list distance cutoff = 0
  ghost atom cutoff = 100
  binsize = 1000, bins = 1 1 1
  1 neighbor lists, perpetual/occasional/extra = 1 0 0
  (1) fix arclengthrestraint, perpetual
      attributes: half, newton on
      pair build: half/bin/newton
      stencil: half/bin/3d
      bin: standard
WARNING: No pairwise cutoff or binsize set. Atom sorting therefore disabled. (../atom.cpp:2442)
Per MPI rank memory allocation (min/avg/max) = 8.621 | 8.621 | 8.621 Mbytes
   Step         PotEng         KinEng         Fnorm          E_pair         E_pair         E_bond        E_angle        E_dihed         TotEng    
         0   594.40038      0              2493.9455      0              0              0              31.432321      0              594.40038    
        47   594.00061      0              1526.0008      0              0              0              31.252678      0              594.00061    
Loop time of 0.00561573 on 1 procs for 47 steps with 21 atoms

100.0% CPU use with 1 MPI tasks x 1 OpenMP threads

Minimization stats:
  Stopping criterion = energy tolerance
  Energy initial, next-to-last, final = 
      594.400375530729    594.00061131157    594.00061131157
  Force two-norm initial, final = 2493.9455 1526.0008
  Force max component initial, final = 1490.1355 889.65337
  Final line search alpha, max atom move = 5.1115116e-15 4.5474735e-12
  Iterations, force evaluations = 47 1288

MPI task timing breakdown:
Section |  min time  |  avg time  |  max time  |%varavg| %total
---------------------------------------------------------------
Pair    | 0          | 0          | 0          |   0.0 |  0.00
Bond    | 0.0016711  | 0.0016711  | 0.0016711  |   0.0 | 29.76
Neigh   | 0.000436   | 0.000436   | 0.000436   |   0.0 |  7.76
Comm    | 0.00020152 | 0.00020152 | 0.00020152 |   0.0 |  3.59
Output  | 0          | 0          | 0          |   0.0 |  0.00
Modify  | 0.00091355 | 0.00091355 | 0.00091355 |   0.0 | 16.27
Other   |            | 0.002394   |            |       | 42.62

Nlocal:             21 ave          21 max          21 min
Histogram: 1 0 0 0 0 0 0 0 0 0
Nghost:              0 ave           0 max           0 min
Histogram: 1 0 0 0 0 0 0 0 0 0
Neighs:              0 ave           0 max           0 min
Histogram: 1 0 0 0 0 0 0 0 0 0

Total # of neighbors = 0
Ave neighs/atom = 0
Ave special neighs/atom = 5.4285714
Neighbor list builds = 235
Dangerous builds = 142
unfix stationary

reset_timestep 0
timestep 1e-6

fix integrate internals nvt temp 310.0 310.0 $(10.0*dt)
fix integrate internals nvt temp 310.0 310.0 9.999999999999999124e-06
velocity internals create 310.0 ${seed} dist gaussian
velocity internals create 310.0 1 dist gaussian


compute endForce endpointOmega reduce ave fy # Obtain force on endpoint
variable computedForce equal c_endForce # fix print cannot directly print out computes
thermo_style custom step c_endForce c_integrate_temp temp ke

neighbor 100.0 bin
run 0
WARNING: Communication cutoff 100 is shorter than a bond length based estimate of 101.5. This may lead to errors. (../comm.cpp:730)
Per MPI rank memory allocation (min/avg/max) = 7.496 | 7.496 | 7.496 Mbytes
   Step       c_endForce   c_integrate_temp      Temp          KinEng    
         0   0.039043945    310            279            16.63292     
Loop time of 9.82e-07 on 1 procs for 0 steps with 21 atoms

203.7% CPU use with 1 MPI tasks x 1 OpenMP threads

MPI task timing breakdown:
Section |  min time  |  avg time  |  max time  |%varavg| %total
---------------------------------------------------------------
Pair    | 0          | 0          | 0          |   0.0 |  0.00
Bond    | 0          | 0          | 0          |   0.0 |  0.00
Neigh   | 0          | 0          | 0          |   0.0 |  0.00
Comm    | 0          | 0          | 0          |   0.0 |  0.00
Output  | 0          | 0          | 0          |   0.0 |  0.00
Modify  | 0          | 0          | 0          |   0.0 |  0.00
Other   |            | 9.82e-07   |            |       |100.00

Nlocal:             21 ave          21 max          21 min
Histogram: 1 0 0 0 0 0 0 0 0 0
Nghost:              0 ave           0 max           0 min
Histogram: 1 0 0 0 0 0 0 0 0 0
Neighs:              0 ave           0 max           0 min
Histogram: 1 0 0 0 0 0 0 0 0 0

Total # of neighbors = 0
Ave neighs/atom = 0
Ave special neighs/atom = 5.4285714
Neighbor list builds = 0
Dangerous builds = 0
velocity internals scale 310.0

variable sampFreq equal 10000000 # Sample force on endpoints every this-many timesteps.
variable numSamps equal 100 # Number of force samples to take.
variable numSteps equal "v_sampFreq * v_numSamps"
thermo ${sampFreq}
thermo 10000000

# Print out force on endpoint below
fix printForces all print ${sampFreq} "${computedForce}" file Out_Force_Extension/data/data_WLC_21_dispRatio_$(v_dispRatio:%.2f).txt screen no
fix printForces all print 10000000 "${computedForce}" file Out_Force_Extension/data/data_WLC_21_dispRatio_$(v_dispRatio:%.2f).txt screen no
fix printForces all print 10000000 "${computedForce}" file Out_Force_Extension/data/data_WLC_21_dispRatio_0.90.txt screen no

### Below is for validation purposes ###
compute blen all bond/local dist
compute end2end all reduce sum c_blen inputs local
variable totLen equal c_end2end

variable computedTemp equal c_integrate_temp
# variable sysTemp equal temp
# variable sysKE equal ke

variable validFile_end2end string "Out_Force_Extension/validation/end2end_WLC_21_Force_Extension_dispRatio_$(v_dispRatio:%.2f).txt"
Out_Force_Extension/validation/end2end_WLC_21_Force_Extension_dispRatio_0.90.txt
fix print_end2end all print ${sampFreq} "${totLen}" file ${validFile_end2end} screen no title "End-to-end arc length of WLC with 21 atoms"
fix print_end2end all print 10000000 "${totLen}" file ${validFile_end2end} screen no title "End-to-end arc length of WLC with 21 atoms"
fix print_end2end all print 10000000 "${totLen}" file Out_Force_Extension/validation/end2end_WLC_21_Force_Extension_dispRatio_0.90.txt screen no title "End-to-end arc length of WLC with 21 atoms"

variable validFile_internalsTemp string "Out_Force_Extension/validation/internalsTemp_WLC_21_Force_Extension_dispRatio_$(v_dispRatio:%.2f).txt"
Out_Force_Extension/validation/internalsTemp_WLC_21_Force_Extension_dispRatio_0.90.txt
fix print_internalsTemp all print ${sampFreq} "${computedTemp}" file ${validFile_internalsTemp} screen no title "Temperature (K) of internal atoms of WLC with 21 atoms"
fix print_internalsTemp all print 10000000 "${computedTemp}" file ${validFile_internalsTemp} screen no title "Temperature (K) of internal atoms of WLC with 21 atoms"
fix print_internalsTemp all print 10000000 "${computedTemp}" file Out_Force_Extension/validation/internalsTemp_WLC_21_Force_Extension_dispRatio_0.90.txt screen no title "Temperature (K) of internal atoms of WLC with 21 atoms"
### End of validation block ###


run ${numSteps}
run 1000000000
WARNING: Communication cutoff 100 is shorter than a bond length based estimate of 101.5. This may lead to errors. (../comm.cpp:730)
Per MPI rank memory allocation (min/avg/max) = 7.572 | 7.572 | 7.572 Mbytes
   Step       c_endForce   c_integrate_temp      Temp          KinEng    
         0   0.039043945    310            279            16.63292     
  10000000   76.775501      235.41915      211.87723      12.631316    
  20000000   32.769036      522.71404      470.44264      28.046003    
  30000000   4.8959321      185.90635      167.31571      9.9747271    
  40000000   2.6373236      308.77869      277.90082      16.567391    
  50000000   6.438309       271.46805      244.32125      14.565504    
  60000000  -2.0801135      338.69142      304.82228      18.172346    
  70000000   0.66192818     278.53908      250.68517      14.944898    
  80000000   2.8652453      313.43721      282.09349      16.817342    
  90000000  -0.13424897     279.69808      251.72828      15.007083    
 100000000   0.52192466     336.43478      302.7913       18.051267    
 110000000  -0.15943945     279.29461      251.36515      14.985435    
 120000000  -3.4732542      409.54709      368.59238      21.974078    
 130000000  -8.0281454      326.29142      293.66228      17.507029    
 140000000   2.0544734      220.91485      198.82337      11.853094    
 150000000   0.1494654      331.87927      298.69134      17.806843    
 160000000  -2.3502731      246.64721      221.98249      13.233753    
 170000000   2.0130218      385.40429      346.86386      20.678706    
 180000000   6.1088645      336.35136      302.71623      18.046791    
 190000000   4.2550522      432.54822      389.2934       23.208193    
 200000000  -1.806177       245.98955      221.3906       13.198466    
 210000000  -13.08829       355.29803      319.76823      19.063367    
 220000000   1.470112       399.3745       359.43705      21.428271    
 230000000   6.0218698      371.03188      333.92869      19.90756     
 240000000   5.49832        324.53978      292.0858       17.413046    
 250000000   4.6450613      415.69841      374.12857      22.304124    
 260000000   2.2119576      301.11856      271.0067       16.15639     
 270000000   7.6493529      347.70253      312.93228      18.655834    
 280000000   10.1157        223.30812      200.97731      11.981504    
 290000000   3.6491022      279.79564      251.81608      15.012318    
 300000000  -1.4605858      425.46929      382.92236      22.828376    
 310000000  -1.0255623      259.89541      233.90586      13.944579    
 320000000   5.0547054      397.98315      358.18484      21.353619    
 330000000  -1.7897614      218.80574      196.92516      11.73993     
 340000000  -1.7360974      408.26248      367.43623      21.905152    
 350000000   6.9465223      400.45802      360.41222      21.486407    
 360000000   8.431094       285.24415      256.71974      15.304655    
 370000000   4.401765       227.59461      204.83515      12.211493    
 380000000   1.202109       298.2569       268.43121      16.002849    
 390000000   5.0913453      214.35932      192.92339      11.50136     
 400000000  -0.72359968     320.08811      288.0793       17.174194    
 410000000   3.8138833      379.09538      341.18584      20.340204    
 420000000   0.55436981     273.50343      246.15309      14.674712    
 430000000   3.1984639      236.83028      213.14725      12.707029    
 440000000   2.8371773      263.73865      237.36478      14.150787    
 450000000   0.43334418     348.37609      313.53848      18.691973    
 460000000  -0.72152105     314.83543      283.35188      16.892363    
 470000000   5.6411937      286.7118       258.04062      15.383402    
 480000000   3.7124285      207.09317      186.38385      11.111497    
 490000000  -11.903585      402.42195      362.17976      21.591781    
 500000000  -3.7795771      276.6132       248.95188      14.841565    
 510000000   6.7428852      220.67523      198.60771      11.840237    
 520000000  -87.589506      299.19745      269.2777       16.053314    
 530000000   2.9427916      365.01422      328.5128       19.584685    
 540000000  -2.92986        344.31268      309.88141      18.473953    
 550000000   0.94628692     310.41236      279.37112      16.655045    
 560000000   1.6081535      213.96458      192.56812      11.48018     
 570000000   3.1059996      189.5834       170.62506      10.172018    
 580000000   2.3374718      207.12931      186.41638      11.113436    
 590000000   5.9505174      148.86481      133.97833      7.987279     
 600000000   1.9004099      285.68483      257.11634      15.3283      
 610000000   4.9956003      276.16025      248.54422      14.817262    
 620000000   3.4957941      293.96116      264.56504      15.772363    
 630000000   0.55308657     265.98523      239.38671      14.271326    
 640000000  -1.4032522      360.08716      324.07845      19.320326    
 650000000  -1.5732109      385.63892      347.07503      20.691295    
 660000000  -11.329288      325.50197      292.95178      17.464672    
 670000000   1.265911       273.60159      246.24143      14.679978    
 680000000   3.6491385      270.74667      243.672        14.526799    
 690000000   7.264875       325.87931      293.29138      17.484918    
 700000000   5.5922756      270.93057      243.83751      14.536666    
 710000000   3.2568218      263.93593      237.54234      14.161372    
 720000000  -0.5796818      237.08274      213.37446      12.720575    
 730000000   2.1335659      315.22719      283.70447      16.913383    
 740000000  -0.50982568     331.05403      297.94863      17.762565    
 750000000  -0.22978223     413.36139      372.02525      22.178732    
 760000000   2.6664951      328.87578      295.98821      17.645692    
 770000000   1.3240046      334.2481       300.82329      17.933942    
 780000000   0.081179443    260.01955      234.0176       13.95124     
 790000000   4.397054       247.8771       223.08939      13.299742    
 800000000   7.1463836      248.15921      223.34329      13.314878    
 810000000   7.7747715      318.94654      287.05188      17.112943    
 820000000  -1.4069049      364.65526      328.18973      19.565425    
 830000000  -1.8029051      278.1877       250.36893      14.926045    
 840000000   1.6278729      277.54621      249.79159      14.891626    
 850000000   1.8599084      256.325        230.6925       13.753011    
 860000000   5.3879342      421.4121       379.27089      22.61069     
 870000000   2.9279848      354.6274       319.16466      19.027384    
 880000000   4.121923       286.31019      257.67917      15.361853    
 890000000   1.6608931      267.57384      240.81646      14.356562    
 900000000   3.1357136      259.40609      233.46548      13.918325    
 910000000   1.0196489      369.9892       332.99028      19.851616    
 920000000   5.8153782      349.79934      314.81941      18.768337    
 930000000   6.4228823      262.08644      235.8778       14.062138    
 940000000   1.0971724      257.32877      231.5959       13.806867    
 950000000   0.70982276     247.61467      222.85321      13.285662    
 960000000   0.57156174     418.89369      377.00432      22.475566    
 970000000  -2.8633616      314.84139      283.35725      16.892683    
 980000000   2.2078082      349.27096      314.34387      18.739987    
 990000000   3.3831112      195.50063      175.95057      10.489505    
1000000000   2.064105       295.08568      265.57712      15.832699    
Loop time of 2690.81 on 1 procs for 1000000000 steps with 21 atoms

Performance: 0.032 ns/day, 747.447 hours/ns, 371635.325 timesteps/s, 7.804 Matom-step/s
100.0% CPU use with 1 MPI tasks x 1 OpenMP threads

MPI task timing breakdown:
Section |  min time  |  avg time  |  max time  |%varavg| %total
---------------------------------------------------------------
Pair    | 0          | 0          | 0          |   0.0 |  0.00
Bond    | 981.15     | 981.15     | 981.15     |   0.0 | 36.46
Neigh   | 0          | 0          | 0          |   0.0 |  0.00
Comm    | 76.947     | 76.947     | 76.947     |   0.0 |  2.86
Output  | 0.0018541  | 0.0018541  | 0.0018541  |   0.0 |  0.00
Modify  | 1303.3     | 1303.3     | 1303.3     |   0.0 | 48.43
Other   |            | 329.5      |            |       | 12.24

Nlocal:             21 ave          21 max          21 min
Histogram: 1 0 0 0 0 0 0 0 0 0
Nghost:              0 ave           0 max           0 min
Histogram: 1 0 0 0 0 0 0 0 0 0
Neighs:              0 ave           0 max           0 min
Histogram: 1 0 0 0 0 0 0 0 0 0

Total # of neighbors = 0
Ave neighs/atom = 0
Ave special neighs/atom = 5.4285714
Neighbor list builds = 0
Dangerous builds = 0
Total wall time: 0:44:50
