
variable totLength equal 10
variable dispDist equal "v_totLength * v_dispRatio / 2"

variable seed equal 1
units real
boundary p p p

atom_style molecular

region main block -500 500 -500 500 -500 500

create_box 41 main bond/types 40 angle/types 39 extra/bond/per/atom 2 extra/angle/per/atom 3 extra/special/per/atom 6
Created orthogonal box = (-500 -500 -500) to (500 500 500)
  1 by 1 by 1 MPI processor grid

molecule WLC_41 Structures/Production/relaxed_WLC_41.txt
Read molecule template WLC_41:
# Relaxed Production Model for Worm-Like Chain
  1 molecules
  0 fragments
  41 atoms with max type 41
  40 bonds with max type 40
  39 angles with max type 39
  0 dihedrals with max type 0
  0 impropers with max type 0
bond_style harmonic
angle_style harmonic
dihedral_style none

create_atoms 0 single 0 0 0 mol WLC_41 ${seed} rotate 0 0 0 1
create_atoms 0 single 0 0 0 mol WLC_41 1 rotate 0 0 0 1
Created 41 atoms
  using lattice units in orthogonal box = (-500 -500 -500) to (500 500 500)
  create_atoms CPU = 0.001 seconds

read_data Structures/Coeffs/coeffs_WLC_41.data add merge
Reading data file ...
  orthogonal box = (-500 -500 -500) to (500 500 500)
  1 by 1 by 1 MPI processor grid
Finding 1-2 1-3 1-4 neighbors ...
  special bond factors lj:    0        0        0       
  special bond factors coul:  0        0        0       
     3 = max # of 1-2 neighbors
     6 = max # of 1-3 neighbors
    18 = max # of 1-4 neighbors
    13 = max # of special neighbors
  special bonds CPU = 0.000 seconds
  read_data CPU = 0.013 seconds
bond_coeff * 0 0.25

group internals type 2:40
39 atoms in group internals
group endpointAlpha type 1
1 atoms in group endpointAlpha
group endpointOmega type 41
1 atoms in group endpointOmega
group endpoints subtract all internals
2 atoms in group endpoints

displace_atoms endpointAlpha move 0 ${dispDist} 0 units box
displace_atoms endpointAlpha move 0 4.5 0 units box
Displacing atoms ...
displace_atoms endpointOmega move 0 -${dispDist} 0 units box
displace_atoms endpointOmega move 0 -4.5 0 units box
Displacing atoms ...

variable k_restrain equal 400

fix restraint all arclengthrestraint WLC_41 ${k_restrain} ${totLength}
fix restraint all arclengthrestraint WLC_41 400 ${totLength}
fix restraint all arclengthrestraint WLC_41 400 10
fix_modify restraint energy yes

comm_modify cutoff 100

compute internalsTemp internals temp
thermo_style custom step pe ke fnorm epair epair ebond eangle edihed etotal

fix stationary endpoints setforce 0 0 0
min_modify dmax 10 norm max line backtrack # backtrack is necessary because minimizing points of restraint energy are degenerate
minimize 0 0 100000 100000
Neighbor list info ...
  update: every = 1 steps, delay = 0 steps, check = yes
  max neighbors/atom: 2000, page size: 100000
  master list distance cutoff = 0
  ghost atom cutoff = 100
  binsize = 1000, bins = 1 1 1
  1 neighbor lists, perpetual/occasional/extra = 1 0 0
  (1) fix arclengthrestraint, perpetual
      attributes: half, newton on
      pair build: half/bin/newton
      stencil: half/bin/3d
      bin: standard
WARNING: No pairwise cutoff or binsize set. Atom sorting therefore disabled. (../atom.cpp:2442)
Per MPI rank memory allocation (min/avg/max) = 8.622 | 8.622 | 8.622 Mbytes
   Step         PotEng         KinEng         Fnorm          E_pair         E_pair         E_bond        E_angle        E_dihed         TotEng    
         0   2652.0933      0              2050635.3      0              0              0              115.27041      0              2652.0933    
       218   155.56694      0              1047.9886      0              0              0              26.355933      0              155.56694    
Loop time of 0.0346613 on 1 procs for 218 steps with 41 atoms

100.0% CPU use with 1 MPI tasks x 1 OpenMP threads

Minimization stats:
  Stopping criterion = linesearch alpha is zero
  Energy initial, next-to-last, final = 
      2652.09330397107   155.566944582855   155.566944582855
  Force two-norm initial, final = 2050635.3 1047.9886
  Force max component initial, final = 1437142.1 804.86975
  Final line search alpha, max atom move = 1.1299899e-14 9.094947e-12
  Iterations, force evaluations = 218 4749

MPI task timing breakdown:
Section |  min time  |  avg time  |  max time  |%varavg| %total
---------------------------------------------------------------
Pair    | 0          | 0          | 0          |   0.0 |  0.00
Bond    | 0.011874   | 0.011874   | 0.011874   |   0.0 | 34.26
Neigh   | 0.0054316  | 0.0054316  | 0.0054316  |   0.0 | 15.67
Comm    | 0.00098143 | 0.00098143 | 0.00098143 |   0.0 |  2.83
Output  | 0          | 0          | 0          |   0.0 |  0.00
Modify  | 0.0046912  | 0.0046912  | 0.0046912  |   0.0 | 13.53
Other   |            | 0.01168    |            |       | 33.71

Nlocal:             41 ave          41 max          41 min
Histogram: 1 0 0 0 0 0 0 0 0 0
Nghost:              0 ave           0 max           0 min
Histogram: 1 0 0 0 0 0 0 0 0 0
Neighs:              0 ave           0 max           0 min
Histogram: 1 0 0 0 0 0 0 0 0 0

Total # of neighbors = 0
Ave neighs/atom = 0
Ave special neighs/atom = 5.7073171
Neighbor list builds = 1089
Dangerous builds = 655
unfix stationary

reset_timestep 0
timestep 1e-6

fix integrate internals nvt temp 310.0 310.0 $(10.0*dt)
fix integrate internals nvt temp 310.0 310.0 9.999999999999999124e-06
velocity internals create 310.0 ${seed} dist gaussian
velocity internals create 310.0 1 dist gaussian


compute endForce endpointOmega reduce ave fy # Obtain force on endpoint
variable computedForce equal c_endForce # fix print cannot directly print out computes
thermo_style custom step c_endForce c_integrate_temp temp ke

neighbor 100.0 bin
run 0
WARNING: Communication cutoff 100 is shorter than a bond length based estimate of 100.375. This may lead to errors. (../comm.cpp:730)
Per MPI rank memory allocation (min/avg/max) = 7.497 | 7.497 | 7.497 Mbytes
   Step       c_endForce   c_integrate_temp      Temp          KinEng    
         0  -0.029684567    310            294.5          35.113942    
Loop time of 9.92e-07 on 1 procs for 0 steps with 41 atoms

201.6% CPU use with 1 MPI tasks x 1 OpenMP threads

MPI task timing breakdown:
Section |  min time  |  avg time  |  max time  |%varavg| %total
---------------------------------------------------------------
Pair    | 0          | 0          | 0          |   0.0 |  0.00
Bond    | 0          | 0          | 0          |   0.0 |  0.00
Neigh   | 0          | 0          | 0          |   0.0 |  0.00
Comm    | 0          | 0          | 0          |   0.0 |  0.00
Output  | 0          | 0          | 0          |   0.0 |  0.00
Modify  | 0          | 0          | 0          |   0.0 |  0.00
Other   |            | 9.92e-07   |            |       |100.00

Nlocal:             41 ave          41 max          41 min
Histogram: 1 0 0 0 0 0 0 0 0 0
Nghost:              0 ave           0 max           0 min
Histogram: 1 0 0 0 0 0 0 0 0 0
Neighs:              0 ave           0 max           0 min
Histogram: 1 0 0 0 0 0 0 0 0 0

Total # of neighbors = 0
Ave neighs/atom = 0
Ave special neighs/atom = 5.7073171
Neighbor list builds = 0
Dangerous builds = 0
velocity internals scale 310.0

variable sampFreq equal 10000000 # Sample force on endpoints every this-many timesteps.
variable numSamps equal 100 # Number of force samples to take.
variable numSteps equal "v_sampFreq * v_numSamps"
thermo ${sampFreq}
thermo 10000000

# Print out force on endpoint below
fix printForces all print ${sampFreq} "${computedForce}" file Out_Force_Extension/data/data_WLC_41_dispRatio_$(v_dispRatio:%.2f).txt screen no
fix printForces all print 10000000 "${computedForce}" file Out_Force_Extension/data/data_WLC_41_dispRatio_$(v_dispRatio:%.2f).txt screen no
fix printForces all print 10000000 "${computedForce}" file Out_Force_Extension/data/data_WLC_41_dispRatio_0.90.txt screen no

### Below is for validation purposes ###
compute blen all bond/local dist
compute end2end all reduce sum c_blen inputs local
variable totLen equal c_end2end

variable computedTemp equal c_integrate_temp
# variable sysTemp equal temp
# variable sysKE equal ke

variable validFile_end2end string "Out_Force_Extension/validation/end2end_WLC_41_Force_Extension_dispRatio_$(v_dispRatio:%.2f).txt"
Out_Force_Extension/validation/end2end_WLC_41_Force_Extension_dispRatio_0.90.txt
fix print_end2end all print ${sampFreq} "${totLen}" file ${validFile_end2end} screen no title "End-to-end arc length of WLC with 41 atoms"
fix print_end2end all print 10000000 "${totLen}" file ${validFile_end2end} screen no title "End-to-end arc length of WLC with 41 atoms"
fix print_end2end all print 10000000 "${totLen}" file Out_Force_Extension/validation/end2end_WLC_41_Force_Extension_dispRatio_0.90.txt screen no title "End-to-end arc length of WLC with 41 atoms"

variable validFile_internalsTemp string "Out_Force_Extension/validation/internalsTemp_WLC_41_Force_Extension_dispRatio_$(v_dispRatio:%.2f).txt"
Out_Force_Extension/validation/internalsTemp_WLC_41_Force_Extension_dispRatio_0.90.txt
fix print_internalsTemp all print ${sampFreq} "${computedTemp}" file ${validFile_internalsTemp} screen no title "Temperature (K) of internal atoms of WLC with 41 atoms"
fix print_internalsTemp all print 10000000 "${computedTemp}" file ${validFile_internalsTemp} screen no title "Temperature (K) of internal atoms of WLC with 41 atoms"
fix print_internalsTemp all print 10000000 "${computedTemp}" file Out_Force_Extension/validation/internalsTemp_WLC_41_Force_Extension_dispRatio_0.90.txt screen no title "Temperature (K) of internal atoms of WLC with 41 atoms"
### End of validation block ###


run ${numSteps}
run 1000000000
WARNING: Communication cutoff 100 is shorter than a bond length based estimate of 100.375. This may lead to errors. (../comm.cpp:730)
Per MPI rank memory allocation (min/avg/max) = 7.573 | 7.573 | 7.573 Mbytes
   Step       c_endForce   c_integrate_temp      Temp          KinEng    
         0  -0.029684567    310            294.5          35.113942    
  10000000   23.773992      363.21116      345.05061      41.141213    
  20000000   6.8188482      311.10046      295.54543      35.238592    
  30000000   17.614977      203.3067       193.14137      23.028709    
  40000000   15.950445      377.46334      358.59018      42.755568    
  50000000   4.4618719      292.28003      277.66603      33.106787    
  60000000   5.757327       342.66205      325.52894      38.813598    
  70000000   3.9650485      309.29657      293.83174      35.034264    
  80000000   0.32474112     232.22344      220.61226      26.30413     
  90000000   0.32743577     337.95963      321.06164      38.280951    
 100000000  -3.059298       323.5456       307.36832      36.648264    
 110000000  -10.990787      317.79541      301.90564      35.996934    
 120000000  -0.83645814     307.01531      291.66454      34.775864    
 130000000   12.243506      305.6465       290.36418      34.620818    
 140000000   13.254784      338.39024      321.47073      38.329727    
 150000000   9.7302826      335.03274      318.2811       37.949421    
 160000000  -34.563856      281.39596      267.32616      31.87394     
 170000000  -23.11669       232.81573      221.17494      26.371219    
 180000000   3.4703975      323.80254      307.61241      36.677367    
 190000000   6.5881651      368.56755      350.13917      41.747934    
 200000000   11.445848      329.88944      313.39496      37.366834    
 210000000   3.0257884      332.17443      315.56571      37.625657    
 220000000  -4.6672334      286.40181      272.08172      32.440957    
 230000000   11.803205      298.02312      283.12196      33.757311    
 240000000   2.4809851      306.3307       291.01417      34.698318    
 250000000  -1.6138098      314.25834      298.54542      35.596288    
 260000000   5.6904522      317.64751      301.76513      35.980182    
 270000000   8.7470727      313.40742      297.73705      35.499903    
 280000000  -3.8762972      410.60849      390.07806      46.509945    
 290000000  -4.7754147      343.89674      326.7019       38.953452    
 300000000   0.21262858     279.08056      265.12653      31.611674    
 310000000   1.5962284      369.51341      351.03774      41.855073    
 320000000   9.2118168      406.21346      385.90279      46.012117    
 330000000   18.50753       335.71072      318.92519      38.026216    
 340000000   26.118702      253.14074      240.4837       28.67345     
 350000000   18.960573      342.50892      325.38348      38.796253    
 360000000   13.99308       385.51277      366.23713      43.667333    
 370000000   12.482765      345.69247      328.40785      39.156857    
 380000000   7.9091878      297.03572      282.18393      33.645468    
 390000000  -2.5645532      307.28936      291.92489      34.806906    
 400000000  -6.9366294      237.20791      225.34751      26.868725    
 410000000  -9.5432506      281.74854      267.66111      31.913878    
 420000000  -34.422634      332.36789      315.7495       37.647571    
 430000000   6.10467        295.67898      280.89503      33.491789    
 440000000  -1.3054116      362.78758      344.6482       41.093233    
 450000000  -2.9948454      322.605        306.47475      36.541721    
 460000000   22.501092      266.54601      253.21871      30.191875    
 470000000  -1.1952599      340.37645      323.35763      38.554707    
 480000000   14.099684      362.42297      344.30182      41.051933    
 490000000   12.935319      321.27135      305.20779      36.390657    
 500000000   10.194872      348.44713      331.02477      39.468879    
 510000000  -1.2748557      321.95663      305.8588       36.468279    
 520000000  -3.6305962      295.77138      280.98281      33.502256    
 530000000   16.130786      300.01523      285.01447      33.98296     
 540000000   8.488851       334.73174      317.99516      37.915326    
 550000000   8.3545341      321.95051      305.85299      36.467586    
 560000000   15.273451      338.42502      321.50377      38.333667    
 570000000   13.050567      349.64307      332.16092      39.604344    
 580000000  -11.494424      316.77308      300.93443      35.881135    
 590000000   10.452848      260.88106      247.83701      29.550202    
 600000000  -21.070005      267.28338      253.91922      30.275398    
 610000000   2.5745913      281.19829      267.13837      31.85155     
 620000000   7.3511171      338.87182      321.92823      38.384276    
 630000000   3.637654       233.48421      221.81         26.446939    
 640000000   1.3832671      388.751        369.31345      44.03413     
 650000000  -18.442095      257.48402      244.60982      29.165416    
 660000000   2.5054548      279.28754      265.32317      31.635118    
 670000000   3.7136378      289.1894       274.72993      32.756709    
 680000000  -5.72925        404.02473      383.82349      45.764197    
 690000000   2.2156464      303.72802      288.54162      34.40351     
 700000000  -0.10421569     306.16633      290.85802      34.6797      
 710000000   2.612043       334.8353       318.09353      37.927056    
 720000000   6.9908893      314.53196      298.80536      35.627281    
 730000000   11.005832      347.46105      330.088        39.357185    
 740000000   15.517192      273.0509       259.39835      30.928689    
 750000000   17.651596      313.83598      298.14418      35.548447    
 760000000   20.99581       326.97662      310.62779      37.036897    
 770000000  -19.063952      294.47373      279.75004      33.355269    
 780000000   2.7256816      334.27965      317.56567      37.864118    
 790000000  -3.1833553      278.00675      264.10641      31.490042    
 800000000   16.229788      357.2141       339.3534       40.46192     
 810000000   7.2621238      341.16668      324.10835      38.644217    
 820000000   0.1088663      317.59272      301.71308      35.973976    
 830000000   6.2587508      342.07552      324.97174      38.747161    
 840000000   0.69525802     219.66982      208.68633      24.882172    
 850000000   4.0090191      353.97823      336.27932      40.095391    
 860000000   5.9417721      302.13174      287.02515      34.222699    
 870000000  -3.5872915      285.37828      271.10937      32.325021    
 880000000   0.13688156     331.37457      314.80584      37.535056    
 890000000   10.703968      351.41004      333.83953      39.80449     
 900000000   19.520519      312.6865       297.05217      35.418244    
 910000000   18.462292      229.61718      218.13632      26.008917    
 920000000   2.8153744      318.68762      302.75323      36.097995    
 930000000   10.87142       362.92948      344.783        41.109306    
 940000000   12.844928      279.7562       265.76839      31.688204    
 950000000  -4.5204418      355.90685      338.11151      40.313847    
 960000000   10.536979      223.90375      212.70856      25.361752    
 970000000  -2.1109696      279.58276      265.60363      31.668558    
 980000000  -3.6718001      331.34788      314.78049      37.532033    
 990000000   10.318775      242.89595      230.75115      27.513014    
1000000000  -8.2638473      315.7961       300.00629      35.770471    
Loop time of 4402.88 on 1 procs for 1000000000 steps with 41 atoms

Performance: 0.020 ns/day, 1223.023 hours/ns, 227123.967 timesteps/s, 9.312 Matom-step/s
100.0% CPU use with 1 MPI tasks x 1 OpenMP threads

MPI task timing breakdown:
Section |  min time  |  avg time  |  max time  |%varavg| %total
---------------------------------------------------------------
Pair    | 0          | 0          | 0          |   0.0 |  0.00
Bond    | 2131.1     | 2131.1     | 2131.1     |   0.0 | 48.40
Neigh   | 0          | 0          | 0          |   0.0 |  0.00
Comm    | 75.59      | 75.59      | 75.59      |   0.0 |  1.72
Output  | 0.0035726  | 0.0035726  | 0.0035726  |   0.0 |  0.00
Modify  | 1841.4     | 1841.4     | 1841.4     |   0.0 | 41.82
Other   |            | 354.8      |            |       |  8.06

Nlocal:             41 ave          41 max          41 min
Histogram: 1 0 0 0 0 0 0 0 0 0
Nghost:              0 ave           0 max           0 min
Histogram: 1 0 0 0 0 0 0 0 0 0
Neighs:              0 ave           0 max           0 min
Histogram: 1 0 0 0 0 0 0 0 0 0

Total # of neighbors = 0
Ave neighs/atom = 0
Ave special neighs/atom = 5.7073171
Neighbor list builds = 0
Dangerous builds = 0
Total wall time: 1:13:23
