
variable totLength equal 10
variable dispDist equal "v_totLength * v_dispRatio / 2"

variable seed equal 1
units real
boundary p p p

atom_style molecular

region main block -500 500 -500 500 -500 500

create_box 11 main bond/types 10 angle/types 9 extra/bond/per/atom 2 extra/angle/per/atom 3 extra/special/per/atom 6
Created orthogonal box = (-500 -500 -500) to (500 500 500)
  1 by 1 by 1 MPI processor grid

molecule WLC_11 Structures/Production/relaxed_WLC_11.txt
Read molecule template WLC_11:
# Relaxed Production Model for Worm-Like Chain
  1 molecules
  0 fragments
  11 atoms with max type 11
  10 bonds with max type 10
  9 angles with max type 9
  0 dihedrals with max type 0
  0 impropers with max type 0
bond_style harmonic
angle_style harmonic
dihedral_style none

create_atoms 0 single 0 0 0 mol WLC_11 ${seed} rotate 0 0 0 1
create_atoms 0 single 0 0 0 mol WLC_11 1 rotate 0 0 0 1
Created 11 atoms
  using lattice units in orthogonal box = (-500 -500 -500) to (500 500 500)
  create_atoms CPU = 0.001 seconds

read_data Structures/Coeffs/coeffs_WLC_11.data add merge
Reading data file ...
  orthogonal box = (-500 -500 -500) to (500 500 500)
  1 by 1 by 1 MPI processor grid
Finding 1-2 1-3 1-4 neighbors ...
  special bond factors lj:    0        0        0       
  special bond factors coul:  0        0        0       
     3 = max # of 1-2 neighbors
     6 = max # of 1-3 neighbors
    18 = max # of 1-4 neighbors
    13 = max # of special neighbors
  special bonds CPU = 0.000 seconds
  read_data CPU = 0.009 seconds
bond_coeff * 0 1

group internals type 2:10
9 atoms in group internals
group endpointAlpha type 1
1 atoms in group endpointAlpha
group endpointOmega type 11
1 atoms in group endpointOmega
group endpoints subtract all internals
2 atoms in group endpoints

displace_atoms endpointAlpha move 0 ${dispDist} 0 units box
displace_atoms endpointAlpha move 0 4.75 0 units box
Displacing atoms ...
displace_atoms endpointOmega move 0 -${dispDist} 0 units box
displace_atoms endpointOmega move 0 -4.75 0 units box
Displacing atoms ...

variable k_restrain equal 100

fix restraint all arclengthrestraint WLC_11 ${k_restrain} ${totLength}
fix restraint all arclengthrestraint WLC_11 100 ${totLength}
fix restraint all arclengthrestraint WLC_11 100 10
fix_modify restraint energy yes

comm_modify cutoff 100

compute internalsTemp internals temp
thermo_style custom step pe ke fnorm epair epair ebond eangle edihed etotal

fix stationary endpoints setforce 0 0 0
min_modify dmax 10 norm max line backtrack # backtrack is necessary because minimizing points of restraint energy are degenerate
minimize 0 0 100000 100000
Neighbor list info ...
  update: every = 1 steps, delay = 0 steps, check = yes
  max neighbors/atom: 2000, page size: 100000
  master list distance cutoff = 0
  ghost atom cutoff = 100
  binsize = 1000, bins = 1 1 1
  1 neighbor lists, perpetual/occasional/extra = 1 0 0
  (1) fix arclengthrestraint, perpetual
      attributes: half, newton on
      pair build: half/bin/newton
      stencil: half/bin/3d
      bin: standard
WARNING: No pairwise cutoff or binsize set. Atom sorting therefore disabled. (../atom.cpp:2442)
Per MPI rank memory allocation (min/avg/max) = 8.621 | 8.621 | 8.621 Mbytes
   Step         PotEng         KinEng         Fnorm          E_pair         E_pair         E_bond        E_angle        E_dihed         TotEng    
         0   111.31764      0              9293.7409      0              0              0              4.2960272      0              111.31764    
       126   6.2179634      0              40.484447      0              0              0              0.19865333     0              6.2179634    
Loop time of 0.00542201 on 1 procs for 126 steps with 11 atoms

95.9% CPU use with 1 MPI tasks x 1 OpenMP threads

Minimization stats:
  Stopping criterion = linesearch alpha is zero
  Energy initial, next-to-last, final = 
      111.317641361808   6.21796337260535   6.21796337260535
  Force two-norm initial, final = 9293.7409 40.484447
  Force max component initial, final = 6203.1689 30.393106
  Final line search alpha, max atom move = 4.7879001e-12 1.4551915e-10
  Iterations, force evaluations = 126 2097

MPI task timing breakdown:
Section |  min time  |  avg time  |  max time  |%varavg| %total
---------------------------------------------------------------
Pair    | 0          | 0          | 0          |   0.0 |  0.00
Bond    | 0.0013847  | 0.0013847  | 0.0013847  |   0.0 | 25.54
Neigh   | 0.00057817 | 0.00057817 | 0.00057817 |   0.0 | 10.66
Comm    | 0.00036171 | 0.00036171 | 0.00036171 |   0.0 |  6.67
Output  | 0          | 0          | 0          |   0.0 |  0.00
Modify  | 0.00082615 | 0.00082615 | 0.00082615 |   0.0 | 15.24
Other   |            | 0.002271   |            |       | 41.89

Nlocal:             11 ave          11 max          11 min
Histogram: 1 0 0 0 0 0 0 0 0 0
Nghost:              0 ave           0 max           0 min
Histogram: 1 0 0 0 0 0 0 0 0 0
Neighs:              0 ave           0 max           0 min
Histogram: 1 0 0 0 0 0 0 0 0 0

Total # of neighbors = 0
Ave neighs/atom = 0
Ave special neighs/atom = 4.9090909
Neighbor list builds = 621
Dangerous builds = 372
unfix stationary

reset_timestep 0
timestep 1e-6

fix integrate internals nvt temp 310.0 310.0 $(10.0*dt)
fix integrate internals nvt temp 310.0 310.0 9.999999999999999124e-06
velocity internals create 310.0 ${seed} dist gaussian
velocity internals create 310.0 1 dist gaussian


compute endForce endpointOmega reduce ave fy # Obtain force on endpoint
variable computedForce equal c_endForce # fix print cannot directly print out computes
thermo_style custom step c_endForce c_integrate_temp temp ke

neighbor 100.0 bin
run 0
WARNING: Communication cutoff 100 is shorter than a bond length based estimate of 101.5. This may lead to errors. (../comm.cpp:730)
Per MPI rank memory allocation (min/avg/max) = 7.496 | 7.496 | 7.496 Mbytes
   Step       c_endForce   c_integrate_temp      Temp          KinEng    
         0  -0.006376577    310            248            7.3924089    
Loop time of 9.32e-07 on 1 procs for 0 steps with 11 atoms

107.3% CPU use with 1 MPI tasks x 1 OpenMP threads

MPI task timing breakdown:
Section |  min time  |  avg time  |  max time  |%varavg| %total
---------------------------------------------------------------
Pair    | 0          | 0          | 0          |   0.0 |  0.00
Bond    | 0          | 0          | 0          |   0.0 |  0.00
Neigh   | 0          | 0          | 0          |   0.0 |  0.00
Comm    | 0          | 0          | 0          |   0.0 |  0.00
Output  | 0          | 0          | 0          |   0.0 |  0.00
Modify  | 0          | 0          | 0          |   0.0 |  0.00
Other   |            | 9.32e-07   |            |       |100.00

Nlocal:             11 ave          11 max          11 min
Histogram: 1 0 0 0 0 0 0 0 0 0
Nghost:              0 ave           0 max           0 min
Histogram: 1 0 0 0 0 0 0 0 0 0
Neighs:              0 ave           0 max           0 min
Histogram: 1 0 0 0 0 0 0 0 0 0

Total # of neighbors = 0
Ave neighs/atom = 0
Ave special neighs/atom = 4.9090909
Neighbor list builds = 0
Dangerous builds = 0
velocity internals scale 310.0

variable sampFreq equal 10000000 # Sample force on endpoints every this-many timesteps.
variable numSamps equal 100 # Number of force samples to take.
variable numSteps equal "v_sampFreq * v_numSamps"
thermo ${sampFreq}
thermo 10000000

# Print out force on endpoint below
fix printForces all print ${sampFreq} "${computedForce}" file Out_Force_Extension/data/data_WLC_11_dispRatio_$(v_dispRatio:%.2f).txt screen no
fix printForces all print 10000000 "${computedForce}" file Out_Force_Extension/data/data_WLC_11_dispRatio_$(v_dispRatio:%.2f).txt screen no
fix printForces all print 10000000 "${computedForce}" file Out_Force_Extension/data/data_WLC_11_dispRatio_0.95.txt screen no

### Below is for validation purposes ###
compute blen all bond/local dist
compute end2end all reduce sum c_blen inputs local
variable totLen equal c_end2end

variable computedTemp equal c_integrate_temp
# variable sysTemp equal temp
# variable sysKE equal ke

variable validFile_end2end string "Out_Force_Extension/validation/end2end_WLC_11_Force_Extension_dispRatio_$(v_dispRatio:%.2f).txt"
Out_Force_Extension/validation/end2end_WLC_11_Force_Extension_dispRatio_0.95.txt
fix print_end2end all print ${sampFreq} "${totLen}" file ${validFile_end2end} screen no title "End-to-end arc length of WLC with 11 atoms"
fix print_end2end all print 10000000 "${totLen}" file ${validFile_end2end} screen no title "End-to-end arc length of WLC with 11 atoms"
fix print_end2end all print 10000000 "${totLen}" file Out_Force_Extension/validation/end2end_WLC_11_Force_Extension_dispRatio_0.95.txt screen no title "End-to-end arc length of WLC with 11 atoms"

variable validFile_internalsTemp string "Out_Force_Extension/validation/internalsTemp_WLC_11_Force_Extension_dispRatio_$(v_dispRatio:%.2f).txt"
Out_Force_Extension/validation/internalsTemp_WLC_11_Force_Extension_dispRatio_0.95.txt
fix print_internalsTemp all print ${sampFreq} "${computedTemp}" file ${validFile_internalsTemp} screen no title "Temperature (K) of internal atoms of WLC with 11 atoms"
fix print_internalsTemp all print 10000000 "${computedTemp}" file ${validFile_internalsTemp} screen no title "Temperature (K) of internal atoms of WLC with 11 atoms"
fix print_internalsTemp all print 10000000 "${computedTemp}" file Out_Force_Extension/validation/internalsTemp_WLC_11_Force_Extension_dispRatio_0.95.txt screen no title "Temperature (K) of internal atoms of WLC with 11 atoms"
### End of validation block ###


run ${numSteps}
run 1000000000
WARNING: Communication cutoff 100 is shorter than a bond length based estimate of 101.5. This may lead to errors. (../comm.cpp:730)
Per MPI rank memory allocation (min/avg/max) = 7.572 | 7.572 | 7.572 Mbytes
   Step       c_endForce   c_integrate_temp      Temp          KinEng    
         0  -0.006376577    310            248            7.3924089    
  10000000   11.016786      294.21472      235.37177      7.0159854    
  20000000   10.576678      270.38757      216.31006      6.447792     
  30000000   7.8420415      348.10582      278.48466      8.3010986    
  40000000   7.0316479      158.53528      126.82822      3.7805084    
  50000000   6.2334234      381.28022      305.02418      9.0921914    
  60000000   4.3128417      403.22881      322.58305      9.6155878    
  70000000   2.3778956      333.14983      266.51987      7.944451     
  80000000   1.2509817      469.80569      375.84456      11.203212    
  90000000   0.5401315      322.70998      258.16799      7.6954972    
 100000000   0.65834156     240.41287      192.3303       5.7330008    
 110000000   0.52999151     173.48752      138.79002      4.1370668    
 120000000   0.35936049     424.13859      339.31087      10.114213    
 130000000   0.67473645     283.07502      226.46002      6.750343     
 140000000   0.68500491     327.31111      261.84889      7.805218     
 150000000   0.7914947      327.02363      261.6189       7.7983625    
 160000000   0.37113752     368.5539       294.84312      8.7887133    
 170000000   0.81274097     222.8025       178.242        5.3130554    
 180000000   1.1560909      261.36918      209.09534      6.232735     
 190000000   1.1432158      291.31646      233.05317      6.9468723    
 200000000   1.6358251      351.83161      281.46529      8.3899457    
 210000000   2.4721323      328.54202      262.83362      7.8345709    
 220000000   3.4783801      339.83656      271.86925      8.1039059    
 230000000   5.3645344      294.1037       235.28296      7.0133382    
 240000000   7.9951471      486.24808      388.99847      11.595305    
 250000000   8.1139663      304.92881      243.94305      7.2714789    
 260000000   6.5739313      319.2788       255.42304      7.6136755    
 270000000   6.1374468      380.94083      304.75267      9.0840981    
 280000000   4.9673049      420.82067      336.65654      10.035092    
 290000000   4.3085944      239.10865      191.28692      5.7018996    
 300000000   3.5354598      229.67887      183.7431       5.4770327    
 310000000   3.079163       384.54239      307.63391      9.1699825    
 320000000   2.1328365      269.22228      215.37782      6.4200038    
 330000000   0.36786736     475.53174      380.42539      11.339758    
 340000000  -0.056983416    440.22555      352.18044      10.49783     
 350000000  -0.6551224      259.82223      207.85778      6.1958457    
 360000000  -0.20202167     205.82301      164.65841      4.9081544    
 370000000   2.6015552      272.51049      218.00839      6.4984161    
 380000000   3.0310929      168.93419      135.14735      4.0284859    
 390000000   1.3870567      261.57438      209.2595       6.2376283    
 400000000   0.48466487     292.04631      233.63704      6.9642765    
 410000000   0.71245128     337.57094      270.05676      8.0498789    
 420000000   1.8050984      299.32272      239.45817      7.1377933    
 430000000   3.3076896      290.56989      232.45591      6.9290692    
 440000000   4.9183118      259.59813      207.6785       6.1905017    
 450000000   7.2215474      551.26577      441.01262      13.145748    
 460000000   7.2102451      294.08692      235.26954      7.012938     
 470000000   6.6703672      331.36635      265.09308      7.9019212    
 480000000   6.204991       218.73817      174.99053      5.2161354    
 490000000   7.0686917      274.10512      219.2841       6.5364424    
 500000000   8.5417467      250.36571      200.29257      5.9703411    
 510000000   7.435607       277.23373      221.78698      6.6110486    
 520000000   6.3035411      448.23197      358.58558      10.688755    
 530000000   4.3142073      355.62843      284.50275      8.4804865    
 540000000   2.8461441      317.29405      253.83524      7.5663465    
 550000000   1.7276899      601.98223      481.58578      14.355157    
 560000000   1.1074401      251.72081      201.37665      6.0026554    
 570000000   0.3467047      446.99581      357.59665      10.659277    
 580000000   0.28043958     430.0794       344.06352      10.25588     
 590000000   0.35446274     362.08069      289.66455      8.63435      
 600000000   0.82162479     392.88219      314.30575      9.3688575    
 610000000   0.51025712     285.76035      228.60828      6.8143786    
 620000000   1.0631927      173.11513      138.4921       4.1281864    
 630000000  -0.53872258     285.65061      228.52049      6.8117617    
 640000000  -5.1478234      284.88361      227.90689      6.7934715    
 650000000   2.7772496      147.09366      117.67493      3.507666     
 660000000   2.9242543      235.24452      188.19561      5.6097537    
 670000000   4.8752911      368.96099      295.16879      8.7984209    
 680000000   7.5555196      335.96517      268.77213      8.0115868    
 690000000   7.2319343      303.47199      242.77759      7.2367389    
 700000000   5.5377325      340.24872      272.19897      8.1137344    
 710000000   8.4781516      290.05861      232.04689      6.916877     
 720000000   7.4355701      424.05138      339.2411       10.112133    
 730000000   4.8867274      257.02782      205.62225      6.1292088    
 740000000   3.3061128      335.41559      268.33247      7.9984813    
 750000000   2.4375761      380.76161      304.60929      9.0798242    
 760000000   1.9967393      379.41939      303.53551      9.0478171    
 770000000   0.63664915     370.23704      296.18963      8.8288504    
 780000000   1.7050856      242.37767      193.90214      5.7798544    
 790000000  -0.28317269     258.14627      206.51702      6.1558801    
 800000000  -0.92097326     307.03928      245.63143      7.3218062    
 810000000  -1.0835395      225.94302      180.75442      5.3879458    
 820000000  -0.21634527     440.45659      352.36527      10.503339    
 830000000   2.7738039      453.28193      362.62554      10.809179    
 840000000   0.85699187     453.25097      362.60078      10.80844     
 850000000   0.97864444     198.28634      158.62907      4.7284313    
 860000000   2.1010096      237.66232      190.12985      5.6674098    
 870000000   3.2216941      407.33066      325.86453      9.7134027    
 880000000   4.7705002      216.53975      173.2318       5.1637109    
 890000000   5.6915628      385.90771      308.72617      9.2025407    
 900000000   7.0795029      385.67546      308.54037      9.1970024    
 910000000   8.139393       247.40826      197.92661      5.8998162    
 920000000   9.1959127      168.00599      134.4048       4.0063517    
 930000000   7.4166748      368.52137      294.8171       8.7879377    
 940000000   7.798833       339.7121       271.76968      8.1009379    
 950000000   6.5140233      204.30892      163.44713      4.8720486    
 960000000   6.2019907      385.87227      308.69782      9.2016956    
 970000000   4.2952723      346.96353      277.57082      8.273859     
 980000000   3.6579512      161.15462      128.9237       3.8429705    
 990000000   1.8629255      409.25001      327.40001      9.7591724    
1000000000   0.73000636     299.02809      239.22247      7.1307676    
Loop time of 1597.85 on 1 procs for 1000000000 steps with 11 atoms

Performance: 0.054 ns/day, 443.846 hours/ns, 625842.337 timesteps/s, 6.884 Matom-step/s
100.0% CPU use with 1 MPI tasks x 1 OpenMP threads

MPI task timing breakdown:
Section |  min time  |  avg time  |  max time  |%varavg| %total
---------------------------------------------------------------
Pair    | 0          | 0          | 0          |   0.0 |  0.00
Bond    | 505.55     | 505.55     | 505.55     |   0.0 | 31.64
Neigh   | 0          | 0          | 0          |   0.0 |  0.00
Comm    | 69.63      | 69.63      | 69.63      |   0.0 |  4.36
Output  | 0.0020966  | 0.0020966  | 0.0020966  |   0.0 |  0.00
Modify  | 803.87     | 803.87     | 803.87     |   0.0 | 50.31
Other   |            | 218.8      |            |       | 13.69

Nlocal:             11 ave          11 max          11 min
Histogram: 1 0 0 0 0 0 0 0 0 0
Nghost:              0 ave           0 max           0 min
Histogram: 1 0 0 0 0 0 0 0 0 0
Neighs:              0 ave           0 max           0 min
Histogram: 1 0 0 0 0 0 0 0 0 0

Total # of neighbors = 0
Ave neighs/atom = 0
Ave special neighs/atom = 4.9090909
Neighbor list builds = 0
Dangerous builds = 0
Total wall time: 0:26:37
