
variable totLength equal 10
variable dispDist equal "v_totLength * v_dispRatio / 2"

variable seed equal 1
units real
boundary p p p

atom_style molecular

region main block -500 500 -500 500 -500 500

create_box 41 main bond/types 40 angle/types 39 extra/bond/per/atom 2 extra/angle/per/atom 3 extra/special/per/atom 6
Created orthogonal box = (-500 -500 -500) to (500 500 500)
  1 by 1 by 1 MPI processor grid

molecule WLC_41 Structures/Production/relaxed_WLC_41.txt
Read molecule template WLC_41:
# Relaxed Production Model for Worm-Like Chain
  1 molecules
  0 fragments
  41 atoms with max type 41
  40 bonds with max type 40
  39 angles with max type 39
  0 dihedrals with max type 0
  0 impropers with max type 0
bond_style harmonic
angle_style harmonic
dihedral_style none

create_atoms 0 single 0 0 0 mol WLC_41 ${seed} rotate 0 0 0 1
create_atoms 0 single 0 0 0 mol WLC_41 1 rotate 0 0 0 1
Created 41 atoms
  using lattice units in orthogonal box = (-500 -500 -500) to (500 500 500)
  create_atoms CPU = 0.001 seconds

read_data Structures/Coeffs/coeffs_WLC_41.data add merge
Reading data file ...
  orthogonal box = (-500 -500 -500) to (500 500 500)
  1 by 1 by 1 MPI processor grid
Finding 1-2 1-3 1-4 neighbors ...
  special bond factors lj:    0        0        0       
  special bond factors coul:  0        0        0       
     3 = max # of 1-2 neighbors
     6 = max # of 1-3 neighbors
    18 = max # of 1-4 neighbors
    13 = max # of special neighbors
  special bonds CPU = 0.000 seconds
  read_data CPU = 0.012 seconds
bond_coeff * 0 0.25

group internals type 2:40
39 atoms in group internals
group endpointAlpha type 1
1 atoms in group endpointAlpha
group endpointOmega type 41
1 atoms in group endpointOmega
group endpoints subtract all internals
2 atoms in group endpoints

displace_atoms endpointAlpha move 0 ${dispDist} 0 units box
displace_atoms endpointAlpha move 0 1.25 0 units box
Displacing atoms ...
displace_atoms endpointOmega move 0 -${dispDist} 0 units box
displace_atoms endpointOmega move 0 -1.25 0 units box
Displacing atoms ...

variable k_restrain equal 400

fix restraint all arclengthrestraint WLC_41 ${k_restrain} ${totLength}
fix restraint all arclengthrestraint WLC_41 400 ${totLength}
fix restraint all arclengthrestraint WLC_41 400 10
fix_modify restraint energy yes

comm_modify cutoff 100

compute internalsTemp internals temp
thermo_style custom step pe ke fnorm epair epair ebond eangle edihed etotal

fix stationary endpoints setforce 0 0 0
min_modify dmax 10 norm max line backtrack # backtrack is necessary because minimizing points of restraint energy are degenerate
minimize 0 0 100000 100000
Neighbor list info ...
  update: every = 1 steps, delay = 0 steps, check = yes
  max neighbors/atom: 2000, page size: 100000
  master list distance cutoff = 0
  ghost atom cutoff = 100
  binsize = 1000, bins = 1 1 1
  1 neighbor lists, perpetual/occasional/extra = 1 0 0
  (1) fix arclengthrestraint, perpetual
      attributes: half, newton on
      pair build: half/bin/newton
      stencil: half/bin/3d
      bin: standard
WARNING: No pairwise cutoff or binsize set. Atom sorting therefore disabled. (../atom.cpp:2442)
Per MPI rank memory allocation (min/avg/max) = 8.622 | 8.622 | 8.622 Mbytes
   Step         PotEng         KinEng         Fnorm          E_pair         E_pair         E_bond        E_angle        E_dihed         TotEng    
         0   224.44477      0              2050590.9      0              0              0              114.87305      0              224.44477    
       113   79.408791      0              117.05901      0              0              0              79.406019      0              79.408791    
Loop time of 0.0162492 on 1 procs for 113 steps with 41 atoms

92.4% CPU use with 1 MPI tasks x 1 OpenMP threads

Minimization stats:
  Stopping criterion = linesearch alpha is zero
  Energy initial, next-to-last, final = 
      224.444766777758   79.4087910035454   79.4087910035454
  Force two-norm initial, final = 2050590.9 117.05901
  Force max component initial, final = 1436913.9 54.921926
  Final line search alpha, max atom move = 6.6239098e-13 3.6379788e-11
  Iterations, force evaluations = 113 2287

MPI task timing breakdown:
Section |  min time  |  avg time  |  max time  |%varavg| %total
---------------------------------------------------------------
Pair    | 0          | 0          | 0          |   0.0 |  0.00
Bond    | 0.0056807  | 0.0056807  | 0.0056807  |   0.0 | 34.96
Neigh   | 0.0022144  | 0.0022144  | 0.0022144  |   0.0 | 13.63
Comm    | 0.00049837 | 0.00049837 | 0.00049837 |   0.0 |  3.07
Output  | 0          | 0          | 0          |   0.0 |  0.00
Modify  | 0.0021828  | 0.0021828  | 0.0021828  |   0.0 | 13.43
Other   |            | 0.005673   |            |       | 34.91

Nlocal:             41 ave          41 max          41 min
Histogram: 1 0 0 0 0 0 0 0 0 0
Nghost:              0 ave           0 max           0 min
Histogram: 1 0 0 0 0 0 0 0 0 0
Neighs:              0 ave           0 max           0 min
Histogram: 1 0 0 0 0 0 0 0 0 0

Total # of neighbors = 0
Ave neighs/atom = 0
Ave special neighs/atom = 5.7073171
Neighbor list builds = 565
Dangerous builds = 340
unfix stationary

reset_timestep 0
timestep 1e-6

fix integrate internals nvt temp 310.0 310.0 $(10.0*dt)
fix integrate internals nvt temp 310.0 310.0 9.999999999999999124e-06
velocity internals create 310.0 ${seed} dist gaussian
velocity internals create 310.0 1 dist gaussian


compute endForce endpointOmega reduce ave fy # Obtain force on endpoint
variable computedForce equal c_endForce # fix print cannot directly print out computes
thermo_style custom step c_endForce c_integrate_temp temp ke

neighbor 100.0 bin
run 0
WARNING: Communication cutoff 100 is shorter than a bond length based estimate of 100.375. This may lead to errors. (../comm.cpp:730)
Per MPI rank memory allocation (min/avg/max) = 7.497 | 7.497 | 7.497 Mbytes
   Step       c_endForce   c_integrate_temp      Temp          KinEng    
         0   0.05117589     310            294.5          35.113942    
Loop time of 9.72e-07 on 1 procs for 0 steps with 41 atoms

0.0% CPU use with 1 MPI tasks x 1 OpenMP threads

MPI task timing breakdown:
Section |  min time  |  avg time  |  max time  |%varavg| %total
---------------------------------------------------------------
Pair    | 0          | 0          | 0          |   0.0 |  0.00
Bond    | 0          | 0          | 0          |   0.0 |  0.00
Neigh   | 0          | 0          | 0          |   0.0 |  0.00
Comm    | 0          | 0          | 0          |   0.0 |  0.00
Output  | 0          | 0          | 0          |   0.0 |  0.00
Modify  | 0          | 0          | 0          |   0.0 |  0.00
Other   |            | 9.72e-07   |            |       |100.00

Nlocal:             41 ave          41 max          41 min
Histogram: 1 0 0 0 0 0 0 0 0 0
Nghost:              0 ave           0 max           0 min
Histogram: 1 0 0 0 0 0 0 0 0 0
Neighs:              0 ave           0 max           0 min
Histogram: 1 0 0 0 0 0 0 0 0 0

Total # of neighbors = 0
Ave neighs/atom = 0
Ave special neighs/atom = 5.7073171
Neighbor list builds = 0
Dangerous builds = 0
velocity internals scale 310.0

variable sampFreq equal 10000000 # Sample force on endpoints every this-many timesteps.
variable numSamps equal 100 # Number of force samples to take.
variable numSteps equal "v_sampFreq * v_numSamps"
thermo ${sampFreq}
thermo 10000000

# Print out force on endpoint below
fix printForces all print ${sampFreq} "${computedForce}" file Out_Force_Extension/data/data_WLC_41_dispRatio_$(v_dispRatio:%.2f).txt screen no
fix printForces all print 10000000 "${computedForce}" file Out_Force_Extension/data/data_WLC_41_dispRatio_$(v_dispRatio:%.2f).txt screen no
fix printForces all print 10000000 "${computedForce}" file Out_Force_Extension/data/data_WLC_41_dispRatio_0.25.txt screen no

### Below is for validation purposes ###
compute blen all bond/local dist
compute end2end all reduce sum c_blen inputs local
variable totLen equal c_end2end

variable computedTemp equal c_integrate_temp
# variable sysTemp equal temp
# variable sysKE equal ke

variable validFile_end2end string "Out_Force_Extension/validation/end2end_WLC_41_Force_Extension_dispRatio_$(v_dispRatio:%.2f).txt"
Out_Force_Extension/validation/end2end_WLC_41_Force_Extension_dispRatio_0.25.txt
fix print_end2end all print ${sampFreq} "${totLen}" file ${validFile_end2end} screen no title "End-to-end arc length of WLC with 41 atoms"
fix print_end2end all print 10000000 "${totLen}" file ${validFile_end2end} screen no title "End-to-end arc length of WLC with 41 atoms"
fix print_end2end all print 10000000 "${totLen}" file Out_Force_Extension/validation/end2end_WLC_41_Force_Extension_dispRatio_0.25.txt screen no title "End-to-end arc length of WLC with 41 atoms"

variable validFile_internalsTemp string "Out_Force_Extension/validation/internalsTemp_WLC_41_Force_Extension_dispRatio_$(v_dispRatio:%.2f).txt"
Out_Force_Extension/validation/internalsTemp_WLC_41_Force_Extension_dispRatio_0.25.txt
fix print_internalsTemp all print ${sampFreq} "${computedTemp}" file ${validFile_internalsTemp} screen no title "Temperature (K) of internal atoms of WLC with 41 atoms"
fix print_internalsTemp all print 10000000 "${computedTemp}" file ${validFile_internalsTemp} screen no title "Temperature (K) of internal atoms of WLC with 41 atoms"
fix print_internalsTemp all print 10000000 "${computedTemp}" file Out_Force_Extension/validation/internalsTemp_WLC_41_Force_Extension_dispRatio_0.25.txt screen no title "Temperature (K) of internal atoms of WLC with 41 atoms"
### End of validation block ###


run ${numSteps}
run 1000000000
WARNING: Communication cutoff 100 is shorter than a bond length based estimate of 100.375. This may lead to errors. (../comm.cpp:730)
Per MPI rank memory allocation (min/avg/max) = 7.573 | 7.573 | 7.573 Mbytes
   Step       c_endForce   c_integrate_temp      Temp          KinEng    
         0   0.05117589     310            294.5          35.113942    
  10000000   4.2991975      371.54415      352.96694      42.085096    
  20000000   7.6058484      357.5249       339.64866      40.497125    
  30000000   10.368578      289.20647      274.74614      32.758642    
  40000000  -0.49122627     276.90771      263.06232      31.365553    
  50000000   9.3239033      324.66893      308.43548      36.775503    
  60000000  -1.118855       319.06058      303.10755      36.140241    
  70000000  -3.0658649      303.03475      287.88301      34.324983    
  80000000   12.797603      365.10688      346.85153      41.355941    
  90000000  -19.611359      368.99856      350.54863      41.796756    
 100000000   5.1442887      362.3845       344.26528      41.047576    
 110000000   9.6068599      275.25528      261.49251      31.17838     
 120000000   7.2105287      243.66698      231.48363      27.600349    
 130000000   2.3260723      359.1903       341.23078      40.685766    
 140000000  -4.5752124      289.36422      274.89601      32.776511    
 150000000  -3.7908796      314.01193      298.31133      35.568377    
 160000000  -1.6502233      322.80521      306.66495      36.564399    
 170000000  -9.8856095      396.00732      376.20695      44.856058    
 180000000  -3.7951579      337.22273      320.3616       38.197483    
 190000000   1.1811254      298.03519      283.13343      33.758679    
 200000000  -5.7992474      320.49602      304.47122      36.302834    
 210000000  -67.484399      321.96878      305.87034      36.469655    
 220000000   2.7959523      286.2958       271.98101      32.42895     
 230000000  -34.010195      305.45494      290.18219      34.59912     
 240000000   14.393166      343.30728      326.14192      38.886684    
 250000000  -8.2725606      248.63058      236.19905      28.16258     
 260000000   1.3408955      392.86586      373.22256      44.500223    
 270000000  -0.45388518     268.44936      255.0269       30.407469    
 280000000  -4.76138        246.44978      234.12729      27.915559    
 290000000   0.51603557     335.09617      318.34137      37.956606    
 300000000   2.9187595      310.45562      294.93284      35.165551    
 310000000  -1.5295136      338.91196      321.96637      38.388823    
 320000000  -1.4353507      273.78971      260.10022      31.012375    
 330000000  -1.9229794      311.85297      296.26032      35.32383     
 340000000   9.476675       325.96561      309.66733      36.922379    
 350000000   4.3905124      258.13018      245.22368      29.238608    
 360000000   6.4044437      333.03846      316.38654      37.723527    
 370000000   7.7088814      321.60649      305.52617      36.428619    
 380000000   9.0296363      309.71701      294.23116      35.081888    
 390000000   5.0713909      228.89518      217.45042      25.927136    
 400000000   5.3003645      235.5361       223.7593       26.679359    
 410000000   4.5915807      317.22155      301.36047      35.931933    
 420000000   2.5154897      264.89557      251.65079      30.004928    
 430000000   6.6326074      260.11379      247.1081       29.463292    
 440000000   2.3435834      337.24644      320.38411      38.200167    
 450000000   10.281837      285.85299      271.56034      32.378791    
 460000000   4.5942875      269.56417      256.08596      30.533745    
 470000000  -4.2829302      343.55523      326.37747      38.914769    
 480000000   8.7617559      289.83802      275.34611      32.830179    
 490000000   6.7448637      282.84892      268.70648      32.038519    
 500000000  -7.6527507      300.17315      285.16449      34.000848    
 510000000  -29.098633      261.08634      248.03202      29.573454    
 520000000  -7.5685449      334.53142      317.80485      37.892636    
 530000000  -4.4900822      306.0421       290.74         34.665628    
 540000000  -11.66407       257.28848      244.42406      29.143267    
 550000000  -9.8724286      282.07227      267.96866      31.950547    
 560000000   15.867565      269.41655      255.94572      30.517023    
 570000000   18.774145      319.18793      303.22854      36.154667    
 580000000  -6.8409938      278.77413      264.83542      31.576964    
 590000000   0.80738689     386.182        366.8729       43.743137    
 600000000   9.0198805      291.59767      277.01778      33.029496    
 610000000  -11.008388      300.80252      285.76239      34.072136    
 620000000   0.93132946     268.63368      255.20199      30.428347    
 630000000   3.3403155      310.41542      294.89465      35.160997    
 640000000  -9.8082357      217.97383      207.07514      24.690066    
 650000000  -0.31691797     346.92787      329.58148      39.296791    
 660000000   10.394529      246.7295       234.39302      27.947243    
 670000000  -3.8793863      307.36134      291.99328      34.81506     
 680000000  -3.6577752      325.17792      308.91903      36.833158    
 690000000  -1.2177732      281.99472      267.89499      31.941763    
 700000000   2.5059671      292.01148      277.4109       33.076368    
 710000000  -9.4705875      268.47105      255.0475       30.409926    
 720000000  -6.2424196      280.46963      266.44615      31.769015    
 730000000  -0.052173617    353.39852      335.7286       40.029727    
 740000000  -0.81476607     333.6415       316.95942      37.791833    
 750000000  -5.3884003      266.86727      253.52391      30.228265    
 760000000  -16.781039      327.75582      311.36803      37.125158    
 770000000  -2.2858322      315.45339      299.68072      35.731652    
 780000000   6.1398926      267.77435      254.38563      30.33101     
 790000000   10.608049      350.29614      332.78133      39.678318    
 800000000  -15.842843      396.17589      376.36709      44.875152    
 810000000  -9.9748894      268.25092      254.83837      30.384991    
 820000000   4.9044699      314.78328      299.04411      35.655748    
 830000000  -11.415269      302.55356      287.42588      34.270478    
 840000000  -15.374034      324.58534      308.35607      36.766035    
 850000000   12.383813      301.70158      286.6165       34.173974    
 860000000  -31.543774      335.17444      318.41572      37.965471    
 870000000  -13.651051      274.62179      260.8907       31.106625    
 880000000   8.1913494      359.64437      341.66215      40.737199    
 890000000   4.2376552      244.52439      232.29817      27.697469    
 900000000   1.5856993      310.30148      294.7864       35.148091    
 910000000   7.1636353      253.80141      241.11134      28.748284    
 920000000  -38.838585      304.58614      289.35683      34.50071     
 930000000  -13.865329      279.05294      265.10029      31.608544    
 940000000   3.1407444      374.17801      355.46911      42.383436    
 950000000   17.299962      298.18586      283.27657      33.775745    
 960000000  -11.594158      328.63987      312.20788      37.225295    
 970000000   1.7488968      310.76356      295.22538      35.200431    
 980000000  -3.167003       320.39286      304.37321      36.291149    
 990000000  -4.0112573      302.53565      287.40886      34.268449    
1000000000  -13.345634      246.92994      234.58344      27.969947    
Loop time of 4140.9 on 1 procs for 1000000000 steps with 41 atoms

Performance: 0.021 ns/day, 1150.250 hours/ns, 241493.391 timesteps/s, 9.901 Matom-step/s
100.0% CPU use with 1 MPI tasks x 1 OpenMP threads

MPI task timing breakdown:
Section |  min time  |  avg time  |  max time  |%varavg| %total
---------------------------------------------------------------
Pair    | 0          | 0          | 0          |   0.0 |  0.00
Bond    | 1911.3     | 1911.3     | 1911.3     |   0.0 | 46.16
Neigh   | 0          | 0          | 0          |   0.0 |  0.00
Comm    | 77.129     | 77.129     | 77.129     |   0.0 |  1.86
Output  | 0.0035335  | 0.0035335  | 0.0035335  |   0.0 |  0.00
Modify  | 1797.5     | 1797.5     | 1797.5     |   0.0 | 43.41
Other   |            | 355        |            |       |  8.57

Nlocal:             41 ave          41 max          41 min
Histogram: 1 0 0 0 0 0 0 0 0 0
Nghost:              0 ave           0 max           0 min
Histogram: 1 0 0 0 0 0 0 0 0 0
Neighs:              0 ave           0 max           0 min
Histogram: 1 0 0 0 0 0 0 0 0 0

Total # of neighbors = 0
Ave neighs/atom = 0
Ave special neighs/atom = 5.7073171
Neighbor list builds = 0
Dangerous builds = 0
Total wall time: 1:09:01
