
variable totLength equal 10
variable dispDist equal "v_totLength * v_dispRatio / 2"

variable seed equal 1
units real
boundary p p p

atom_style molecular

region main block -500 500 -500 500 -500 500

create_box 41 main bond/types 40 angle/types 39 extra/bond/per/atom 2 extra/angle/per/atom 3 extra/special/per/atom 6
Created orthogonal box = (-500 -500 -500) to (500 500 500)
  1 by 1 by 1 MPI processor grid

molecule WLC_41 Structures/Production/relaxed_WLC_41.txt
Read molecule template WLC_41:
# Relaxed Production Model for Worm-Like Chain
  1 molecules
  0 fragments
  41 atoms with max type 41
  40 bonds with max type 40
  39 angles with max type 39
  0 dihedrals with max type 0
  0 impropers with max type 0
bond_style harmonic
angle_style harmonic
dihedral_style none

create_atoms 0 single 0 0 0 mol WLC_41 ${seed} rotate 0 0 0 1
create_atoms 0 single 0 0 0 mol WLC_41 1 rotate 0 0 0 1
Created 41 atoms
  using lattice units in orthogonal box = (-500 -500 -500) to (500 500 500)
  create_atoms CPU = 0.001 seconds

read_data Structures/Coeffs/coeffs_WLC_41.data add merge
Reading data file ...
  orthogonal box = (-500 -500 -500) to (500 500 500)
  1 by 1 by 1 MPI processor grid
Finding 1-2 1-3 1-4 neighbors ...
  special bond factors lj:    0        0        0       
  special bond factors coul:  0        0        0       
     3 = max # of 1-2 neighbors
     6 = max # of 1-3 neighbors
    18 = max # of 1-4 neighbors
    13 = max # of special neighbors
  special bonds CPU = 0.000 seconds
  read_data CPU = 0.012 seconds
bond_coeff * 0 0.25

group internals type 2:40
39 atoms in group internals
group endpointAlpha type 1
1 atoms in group endpointAlpha
group endpointOmega type 41
1 atoms in group endpointOmega
group endpoints subtract all internals
2 atoms in group endpoints

displace_atoms endpointAlpha move 0 ${dispDist} 0 units box
displace_atoms endpointAlpha move 0 3.75 0 units box
Displacing atoms ...
displace_atoms endpointOmega move 0 -${dispDist} 0 units box
displace_atoms endpointOmega move 0 -3.75 0 units box
Displacing atoms ...

variable k_restrain equal 400

fix restraint all arclengthrestraint WLC_41 ${k_restrain} ${totLength}
fix restraint all arclengthrestraint WLC_41 400 ${totLength}
fix restraint all arclengthrestraint WLC_41 400 10
fix_modify restraint energy yes

comm_modify cutoff 100

compute internalsTemp internals temp
thermo_style custom step pe ke fnorm epair epair ebond eangle edihed etotal

fix stationary endpoints setforce 0 0 0
min_modify dmax 10 norm max line backtrack # backtrack is necessary because minimizing points of restraint energy are degenerate
minimize 0 0 100000 100000
Neighbor list info ...
  update: every = 1 steps, delay = 0 steps, check = yes
  max neighbors/atom: 2000, page size: 100000
  master list distance cutoff = 0
  ghost atom cutoff = 100
  binsize = 1000, bins = 1 1 1
  1 neighbor lists, perpetual/occasional/extra = 1 0 0
  (1) fix arclengthrestraint, perpetual
      attributes: half, newton on
      pair build: half/bin/newton
      stencil: half/bin/3d
      bin: standard
WARNING: No pairwise cutoff or binsize set. Atom sorting therefore disabled. (../atom.cpp:2442)
Per MPI rank memory allocation (min/avg/max) = 8.622 | 8.622 | 8.622 Mbytes
   Step         PotEng         KinEng         Fnorm          E_pair         E_pair         E_bond        E_angle        E_dihed         TotEng    
         0   1726.5274      0              2050625        0              0              0              115.23795      0              1726.5274    
       109   64.97655       0              279.63359      0              0              0              31.063505      0              64.97655     
Loop time of 0.0169812 on 1 procs for 109 steps with 41 atoms

97.2% CPU use with 1 MPI tasks x 1 OpenMP threads

Minimization stats:
  Stopping criterion = linesearch alpha is zero
  Energy initial, next-to-last, final = 
      1726.52741410621   64.9765498906086   64.9765498906086
  Force two-norm initial, final = 2050625 279.63359
  Force max component initial, final = 1437089.4 126.8722
  Final line search alpha, max atom move = 1.2883486e-13 1.6345563e-11
  Iterations, force evaluations = 109 2164

MPI task timing breakdown:
Section |  min time  |  avg time  |  max time  |%varavg| %total
---------------------------------------------------------------
Pair    | 0          | 0          | 0          |   0.0 |  0.00
Bond    | 0.0060073  | 0.0060073  | 0.0060073  |   0.0 | 35.38
Neigh   | 0.0025855  | 0.0025855  | 0.0025855  |   0.0 | 15.23
Comm    | 0.0004819  | 0.0004819  | 0.0004819  |   0.0 |  2.84
Output  | 0          | 0          | 0          |   0.0 |  0.00
Modify  | 0.0024533  | 0.0024533  | 0.0024533  |   0.0 | 14.45
Other   |            | 0.005453   |            |       | 32.11

Nlocal:             41 ave          41 max          41 min
Histogram: 1 0 0 0 0 0 0 0 0 0
Nghost:              0 ave           0 max           0 min
Histogram: 1 0 0 0 0 0 0 0 0 0
Neighs:              0 ave           0 max           0 min
Histogram: 1 0 0 0 0 0 0 0 0 0

Total # of neighbors = 0
Ave neighs/atom = 0
Ave special neighs/atom = 5.7073171
Neighbor list builds = 544
Dangerous builds = 328
unfix stationary

reset_timestep 0
timestep 1e-6

fix integrate internals nvt temp 310.0 310.0 $(10.0*dt)
fix integrate internals nvt temp 310.0 310.0 9.999999999999999124e-06
velocity internals create 310.0 ${seed} dist gaussian
velocity internals create 310.0 1 dist gaussian


compute endForce endpointOmega reduce ave fy # Obtain force on endpoint
variable computedForce equal c_endForce # fix print cannot directly print out computes
thermo_style custom step c_endForce c_integrate_temp temp ke

neighbor 100.0 bin
run 0
WARNING: Communication cutoff 100 is shorter than a bond length based estimate of 100.375. This may lead to errors. (../comm.cpp:730)
Per MPI rank memory allocation (min/avg/max) = 7.497 | 7.497 | 7.497 Mbytes
   Step       c_endForce   c_integrate_temp      Temp          KinEng    
         0   0.0074320004   310            294.5          35.113942    
Loop time of 1.112e-06 on 1 procs for 0 steps with 41 atoms

89.9% CPU use with 1 MPI tasks x 1 OpenMP threads

MPI task timing breakdown:
Section |  min time  |  avg time  |  max time  |%varavg| %total
---------------------------------------------------------------
Pair    | 0          | 0          | 0          |   0.0 |  0.00
Bond    | 0          | 0          | 0          |   0.0 |  0.00
Neigh   | 0          | 0          | 0          |   0.0 |  0.00
Comm    | 0          | 0          | 0          |   0.0 |  0.00
Output  | 0          | 0          | 0          |   0.0 |  0.00
Modify  | 0          | 0          | 0          |   0.0 |  0.00
Other   |            | 1.112e-06  |            |       |100.00

Nlocal:             41 ave          41 max          41 min
Histogram: 1 0 0 0 0 0 0 0 0 0
Nghost:              0 ave           0 max           0 min
Histogram: 1 0 0 0 0 0 0 0 0 0
Neighs:              0 ave           0 max           0 min
Histogram: 1 0 0 0 0 0 0 0 0 0

Total # of neighbors = 0
Ave neighs/atom = 0
Ave special neighs/atom = 5.7073171
Neighbor list builds = 0
Dangerous builds = 0
velocity internals scale 310.0

variable sampFreq equal 10000000 # Sample force on endpoints every this-many timesteps.
variable numSamps equal 100 # Number of force samples to take.
variable numSteps equal "v_sampFreq * v_numSamps"
thermo ${sampFreq}
thermo 10000000

# Print out force on endpoint below
fix printForces all print ${sampFreq} "${computedForce}" file Out_Force_Extension/data/data_WLC_41_dispRatio_$(v_dispRatio:%.2f).txt screen no
fix printForces all print 10000000 "${computedForce}" file Out_Force_Extension/data/data_WLC_41_dispRatio_$(v_dispRatio:%.2f).txt screen no
fix printForces all print 10000000 "${computedForce}" file Out_Force_Extension/data/data_WLC_41_dispRatio_0.75.txt screen no

### Below is for validation purposes ###
compute blen all bond/local dist
compute end2end all reduce sum c_blen inputs local
variable totLen equal c_end2end

variable computedTemp equal c_integrate_temp
# variable sysTemp equal temp
# variable sysKE equal ke

variable validFile_end2end string "Out_Force_Extension/validation/end2end_WLC_41_Force_Extension_dispRatio_$(v_dispRatio:%.2f).txt"
Out_Force_Extension/validation/end2end_WLC_41_Force_Extension_dispRatio_0.75.txt
fix print_end2end all print ${sampFreq} "${totLen}" file ${validFile_end2end} screen no title "End-to-end arc length of WLC with 41 atoms"
fix print_end2end all print 10000000 "${totLen}" file ${validFile_end2end} screen no title "End-to-end arc length of WLC with 41 atoms"
fix print_end2end all print 10000000 "${totLen}" file Out_Force_Extension/validation/end2end_WLC_41_Force_Extension_dispRatio_0.75.txt screen no title "End-to-end arc length of WLC with 41 atoms"

variable validFile_internalsTemp string "Out_Force_Extension/validation/internalsTemp_WLC_41_Force_Extension_dispRatio_$(v_dispRatio:%.2f).txt"
Out_Force_Extension/validation/internalsTemp_WLC_41_Force_Extension_dispRatio_0.75.txt
fix print_internalsTemp all print ${sampFreq} "${computedTemp}" file ${validFile_internalsTemp} screen no title "Temperature (K) of internal atoms of WLC with 41 atoms"
fix print_internalsTemp all print 10000000 "${computedTemp}" file ${validFile_internalsTemp} screen no title "Temperature (K) of internal atoms of WLC with 41 atoms"
fix print_internalsTemp all print 10000000 "${computedTemp}" file Out_Force_Extension/validation/internalsTemp_WLC_41_Force_Extension_dispRatio_0.75.txt screen no title "Temperature (K) of internal atoms of WLC with 41 atoms"
### End of validation block ###


run ${numSteps}
run 1000000000
WARNING: Communication cutoff 100 is shorter than a bond length based estimate of 100.375. This may lead to errors. (../comm.cpp:730)
Per MPI rank memory allocation (min/avg/max) = 7.573 | 7.573 | 7.573 Mbytes
   Step       c_endForce   c_integrate_temp      Temp          KinEng    
         0   0.0074320004   310            294.5          35.113942    
  10000000   4.1315255      314.16278      298.45464      35.585464    
  20000000   18.91952       295.02018      280.26917      33.417166    
  30000000   16.843163      248.48185      236.05776      28.145734    
  40000000   4.8396733      348.46933      331.04586      39.471393    
  50000000   13.414141      265.49883      252.22388      30.07326     
  60000000   12.129617      265.82296      252.53181      30.109974    
  70000000   0.095022731    386.66712      367.33376      43.798087    
  80000000  -7.985136       266.69612      253.36131      30.208878    
  90000000  -7.945295       279.63928      265.65731      31.674959    
 100000000   27.136467      259.81791      246.82702      29.429778    
 110000000  -6.4454762      264.05473      250.85199      29.909686    
 120000000  -11.279517      246.19125      233.88168      27.886275    
 130000000  -116.1417       302.3735       287.25483      34.250083    
 140000000   0.66020197     387.93282      368.53618      43.941454    
 150000000  -17.686795      347.11954      329.76356      39.318501    
 160000000   4.4490683      212.45323      201.83057      24.064744    
 170000000   2.3546837      301.41692      286.34607      34.14173     
 180000000   10.572673      300.08412      285.07991      33.990763    
 190000000   0.01341265     334.69753      317.96266      37.911451    
 200000000  -2.5445214      334.58675      317.85742      37.898903    
 210000000   3.6467069      308.21699      292.80614      34.91198     
 220000000   12.143787      278.15884      264.2509       31.507269    
 230000000   3.2246218      280.64543      266.61316      31.788928    
 240000000  -6.1570555      360.66973      342.63624      40.853342    
 250000000  -11.541106      328.43317      312.01151      37.201882    
 260000000   12.365198      304.13378      288.92709      34.449471    
 270000000   4.7220642      280.52246      266.49634      31.774999    
 280000000  -30.424826      337.1104       320.25488      38.184758    
 290000000  -0.40962011     301.53699      286.46014      34.15533     
 300000000   2.9036467      295.7509       280.96336      33.499936    
 310000000   18.925895      376.01857      357.21764      42.591918    
 320000000  -8.9648819      364.41434      346.19362      41.277497    
 330000000  -17.175018      271.34436      257.77714      30.735388    
 340000000  -3.9513805      295.92197      281.12587      33.519313    
 350000000   1.2459558      321.2036       305.14342      36.382983    
 360000000   13.543838      312.84008      297.19808      35.435641    
 370000000   14.377344      332.70555      316.07027      37.685817    
 380000000   14.22945       314.50294      298.77779      35.623994    
 390000000   1.3768736      309.08783      293.63344      35.01062     
 400000000   6.464844       308.03458      292.63285      34.891318    
 410000000   3.352878       304.17972      288.97074      34.454675    
 420000000  -1.9671212      258.30309      245.38793      29.258193    
 430000000   4.2832509      376.49035      357.66583      42.645356    
 440000000   9.2304444      329.55699      313.07914      37.329178    
 450000000  -5.6659617      266.02646      252.72513      30.133025    
 460000000   4.5586993      302.85344      287.71077      34.304446    
 470000000   11.175723      285.52971      271.25322      32.342173    
 480000000   4.269302       325.25617      308.99336      36.84202     
 490000000   1.0292278      357.94743      340.05006      40.544986    
 500000000  -0.68596957     335.26228      318.49916      37.97542     
 510000000  -2.4622962      323.50929      307.33383      36.64415     
 520000000  -14.526472      282.33611      268.2193       31.980432    
 530000000   12.807043      277.65056      263.76803      31.449696    
 540000000   14.648782      348.22046      330.80944      39.443204    
 550000000   0.42085177     263.70752      250.52214      29.870357    
 560000000   13.293508      325.35678      309.08894      36.853417    
 570000000   1.113937       299.00717      284.05681      33.868776    
 580000000   2.1067935      283.2846       269.12037      32.087869    
 590000000   9.5894593      278.13062      264.22409      31.504073    
 600000000  -0.72981054     325.12838      308.87196      36.827546    
 610000000   5.8081178      401.43857      381.36664      45.47126     
 620000000   6.580003       307.24746      291.88509      34.802161    
 630000000   3.7818265      368.5054       350.08013      41.740894    
 640000000  -14.384529      238.75317      226.81552      27.043759    
 650000000  -4.4058228      227.87651      216.48268      25.81175     
 660000000   10.669566      295.18504      280.42578      33.43584     
 670000000   8.333577       419.58777      398.60838      47.527035    
 680000000   0.93597961     294.10581      279.40052      33.313596    
 690000000   7.0065593      339.34119      322.37413      38.437442    
 700000000   0.12047735     313.16777      297.50939      35.472759    
 710000000  -5.5090729      295.98357      281.1844       33.526291    
 720000000   3.9960846      327.44638      311.07406      37.090107    
 730000000   8.8730015      297.03867      282.18673      33.645802    
 740000000   54.844024      279.98359      265.98441      31.71396     
 750000000   1.7731998      244.95147      232.70389      27.745844    
 760000000  -29.331472      274.62792      260.89652      31.107319    
 770000000  -0.40818914     329.88121      313.38715      37.365902    
 780000000  -7.1920601      223.83139      212.63982      25.353557    
 790000000   3.1237898      344.7809       327.54185      39.053602    
 800000000   5.5686579      299.02921      284.07775      33.871272    
 810000000   5.4561942      336.06969      319.26621      38.066877    
 820000000   8.0981503      261.36285      248.29471      29.604774    
 830000000  -1.1232046      309.99302      294.49336      35.113151    
 840000000   1.6226127      262.20253      249.0924       29.699885    
 850000000  -22.542313      317.41818      301.54727      35.954206    
 860000000   3.0673949      310.22629      294.71498      35.139575    
 870000000  -0.47840819     276.33298      262.51633      31.300453    
 880000000   11.430299      291.52601      276.94971      33.021379    
 890000000   4.1657115      347.62038      330.23936      39.375232    
 900000000   7.0528695      275.363        261.59485      31.190582    
 910000000   6.7432279      178.88339      169.93922      20.262262    
 920000000   7.6439181      332.51268      315.88704      37.663971    
 930000000   8.7524062      330.74104      314.20399      37.463297    
 940000000   3.8192512      298.7744       283.83568      33.84241     
 950000000  -1.2239798      293.86999      279.17649      33.286884    
 960000000   10.074984      294.69278      279.95814      33.380081    
 970000000   4.7955695      306.21517      290.90441      34.685231    
 980000000   7.1285578      299.64729      284.66493      33.941283    
 990000000  -6.7121316      243.18125      231.02219      27.54533     
1000000000   8.8932345      349.64954      332.16706      39.605077    
Loop time of 4780 on 1 procs for 1000000000 steps with 41 atoms

Performance: 0.018 ns/day, 1327.778 hours/ns, 209205.018 timesteps/s, 8.577 Matom-step/s
100.0% CPU use with 1 MPI tasks x 1 OpenMP threads

MPI task timing breakdown:
Section |  min time  |  avg time  |  max time  |%varavg| %total
---------------------------------------------------------------
Pair    | 0          | 0          | 0          |   0.0 |  0.00
Bond    | 2419       | 2419       | 2419       |   0.0 | 50.61
Neigh   | 0          | 0          | 0          |   0.0 |  0.00
Comm    | 77.639     | 77.639     | 77.639     |   0.0 |  1.62
Output  | 0.0035757  | 0.0035757  | 0.0035757  |   0.0 |  0.00
Modify  | 1929.5     | 1929.5     | 1929.5     |   0.0 | 40.37
Other   |            | 353.8      |            |       |  7.40

Nlocal:             41 ave          41 max          41 min
Histogram: 1 0 0 0 0 0 0 0 0 0
Nghost:              0 ave           0 max           0 min
Histogram: 1 0 0 0 0 0 0 0 0 0
Neighs:              0 ave           0 max           0 min
Histogram: 1 0 0 0 0 0 0 0 0 0

Total # of neighbors = 0
Ave neighs/atom = 0
Ave special neighs/atom = 5.7073171
Neighbor list builds = 0
Dangerous builds = 0
Total wall time: 1:19:40
