ITEM: TIMESTEP
0
ITEM: NUMBER OF ATOMS
42
ITEM: BOX BOUNDS pp pp pp
-1.2000000000000000e+04 3.6000000000000000e+04
-1.2000000000000000e+04 3.6000000000000000e+04
-1.2000000000000000e+04 3.6000000000000000e+04
ITEM: ATOMS id x y z fx fy fz
1 -3.55271e-15 5.6067 1.42109e-14 -0.463294 -0.0361847 0.249216
2 -17.8064 3.1617 20.7094 0.0275531 0.00314175 -0.00828063
3 -34.7616 0.674305 42.1105 -0.0122592 -0.0214696 0.0998504
4 -49.9309 -1.8975 64.8161 0.0753644 -0.0120147 0.0252708
5 -62.2681 -4.5002 89.1677 0.092438 -0.00919996 0.00331748
6 -70.6854 -6.9729 115.14 0.0977392 -0.00468209 0.0417238
7 -74.1127 -9.037 142.26 0.125303 -0.00269074 0.00313121
8 -71.6831 -10.3348 169.53 0.119991 0.00446154 -0.0396402
9 -62.9949 -10.4353 195.521 0.139697 0.0244099 -0.0023011
10 -48.2512 -8.8904 218.577 0.0727707 0.0236365 -0.115729
11 -28.3143 -5.3586 237.043 0.128915 0.0470789 -0.0627752
12 -4.61816 0.360805 249.585 0.0858987 0.0577146 -0.104752
13 20.9945 8.2889 255.339 -0.0959144 0.0110713 -0.130432
14 46.4947 18.2418 253.972 -0.0501602 0.0323223 -0.0886811
15 69.9093 29.8414 245.71 0.0436864 0.092222 -0.149517
16 89.4535 42.5083 231.228 -0.151399 -0.0148864 -0.0201822
17 103.573 55.4732 211.633 -0.11375 -0.00378916 -0.0160954
18 111.129 67.8114 188.357 -0.107999 -0.0052709 -0.0154752
19 111.455 78.4793 163.116 -0.119711 0.00413059 -0.0475897
20 104.469 86.4071 137.822 -0.0794574 -0.0620963 0.107919
21 90.7335 90.5608 114.481 -0.110046 -0.0484262 0.0382659
22 71.5 90.1544 94.9646 -0.0557537 -0.0672315 0.0971886
23 48.6652 84.739 80.8184 -0.0412649 -0.0750051 0.101553
24 24.5498 74.3199 73.0141 0.0669828 -0.0317757 0.121103
25 1.63054 59.3586 71.8234 0.0271664 -0.0666142 0.106804
26 -17.7975 40.6801 76.7735 0.0785691 -0.0111447 0.0730159
27 -31.8577 19.3683 86.7162 0.0631487 -0.0841775 0.0996722
28 -39.1868 -3.4326 100.053 0.111959 0.0213334 0.0244133
29 -38.9732 -26.5127 114.835 0.105785 0.00112581 0.0142461
30 -30.9709 -48.6384 128.897 0.128721 -0.00694886 -0.0102713
31 -15.5539 -68.4518 139.908 0.0407465 0.090037 -0.0912105
32 6.01332 -84.3897 145.52 0.0420291 0.0714542 -0.0992046
33 31.2851 -94.7987 143.747 0.0347311 0.0682931 -0.137481
34 56.4855 -98.3427 133.625 -0.0917007 0.109221 -0.134022
35 77.0528 -94.5867 115.944 -0.181881 0.0773764 -0.0696203
36 89.0338 -84.5917 93.4472 -0.198166 0.0344595 -0.0145898
37 90.6004 -70.6734 69.9176 -0.196752 0.0196543 0.0117506
38 82.4509 -55.4423 48.6494 -0.190571 -0.00309108 0.0353317
39 66.9171 -40.862 31.3842 -0.0475781 -0.0938118 0.135184
40 46.6742 -27.827 18.2609 -0.014966 -0.0619066 0.0679401
41 23.8813 -16.2892 8.292 -0.124138 0.0281309 -0.00138094
42 -3.55271e-15 -5.6067 1.42109e-14 0.737568 -0.0988574 -0.0976657
ITEM: TIMESTEP
1
ITEM: NUMBER OF ATOMS
42
ITEM: BOX BOUNDS pp pp pp
-1.2000000000000000e+04 3.6000000000000000e+04
-1.2000000000000000e+04 3.6000000000000000e+04
-1.2000000000000000e+04 3.6000000000000000e+04
ITEM: ATOMS id x y z fx fy fz
1 -3.55271e-15 5.6067 1.42109e-14 -0.462948 -0.0361372 0.248813
2 -17.8064 3.1617 20.7094 0.0275366 0.00314261 -0.00829415
3 -34.7616 0.674305 42.1105 -0.0122938 -0.021468 0.099825
4 -49.9309 -1.8975 64.8161 0.0753094 -0.0120141 0.0252387
5 -62.2681 -4.5002 89.1677 0.0923619 -0.00920265 0.00328583
6 -70.6854 -6.9729 115.14 0.0976423 -0.00468951 0.0417019
7 -74.1127 -9.037 142.26 0.125189 -0.00270602 0.00312773
8 -71.6831 -10.3348 169.53 0.11987 0.00443795 -0.0396154
9 -62.9949 -10.4353 195.521 0.139579 0.0243785 -0.00224417
10 -48.2512 -8.8904 218.577 0.0726694 0.0235977 -0.115639
11 -28.3143 -5.3586 237.043 0.128843 0.0470364 -0.0626594
12 -4.61816 0.360805 249.585 0.0858611 0.0576718 -0.104621
13 20.9945 8.2889 255.339 -0.0959125 0.0110315 -0.130293
14 46.4947 18.2418 253.972 -0.0501199 0.0322906 -0.0885472
15 69.9093 29.8414 245.71 0.0437621 0.0922014 -0.149397
16 89.4535 42.5083 231.228 -0.151294 -0.0148923 -0.0200827
17 103.573 55.4732 211.633 -0.113622 -0.00377702 -0.0160237
18 111.129 67.8114 188.357 -0.107858 -0.00523915 -0.0154375
19 111.455 78.4793 163.116 -0.119545 0.00415598 -0.0474893
20 104.469 86.4071 137.822 -0.0793945 -0.0619823 0.107702
21 90.7335 90.5608 114.48 -0.109896 -0.0483488 0.0382714
22 71.5 90.1544 94.9646 -0.0556829 -0.0671351 0.0970838
23 48.6652 84.739 80.8184 -0.0412393 -0.0749073 0.101429
24 24.5498 74.3199 73.0141 0.0669594 -0.0316874 0.120975
25 1.63054 59.3586 71.8234 0.0270981 -0.066542 0.106685
26 -17.7975 40.6801 76.7735 0.0784576 -0.0111034 0.0729236
27 -31.8577 19.3683 86.7162 0.0630258 -0.0841392 0.0996017
28 -39.1868 -3.4326 100.053 0.111811 0.0213392 0.0243851
29 -38.9732 -26.5127 114.835 0.105634 0.00110724 0.0142602
30 -30.9709 -48.6384 128.897 0.128576 -0.00699387 -0.010212
31 -15.5539 -68.4518 139.908 0.0406272 0.0899619 -0.0911088
32 6.01332 -84.3897 145.52 0.041945 0.0713509 -0.0990482
33 31.2851 -94.7987 143.747 0.0347885 0.0681492 -0.137354
34 56.4855 -98.3427 133.625 -0.0916544 0.109085 -0.133847
35 77.0528 -94.5867 115.944 -0.181715 0.0772549 -0.0695281
36 89.0338 -84.5917 93.4472 -0.197963 0.0343828 -0.01457
37 90.6004 -70.6734 69.9176 -0.196563 0.0196292 0.0117064
38 82.4509 -55.4423 48.6494 -0.190428 -0.00307843 0.0352542
39 66.9171 -40.862 31.3842 -0.0474867 -0.0937815 0.135103
40 46.6742 -27.827 18.2609 -0.0149165 -0.0618775 0.0678788
41 23.8813 -16.2892 8.292 -0.124117 0.0281476 -0.00141365
42 -3.55271e-15 -5.6067 1.42109e-14 0.737104 -0.09865 -0.0978267
ITEM: TIMESTEP
2
ITEM: NUMBER OF ATOMS
42
ITEM: BOX BOUNDS pp pp pp
-1.2000000000000000e+04 3.6000000000000000e+04
-1.2000000000000000e+04 3.6000000000000000e+04
-1.2000000000000000e+04 3.6000000000000000e+04
ITEM: ATOMS id x y z fx fy fz
1 -3.55271e-15 5.6067 1.42109e-14 -0.462948 -0.0361372 0.248813
2 -17.8064 3.1617 20.7094 0.0275366 0.00314261 -0.00829415
3 -34.7616 0.674305 42.1105 -0.0122938 -0.021468 0.099825
4 -49.9309 -1.8975 64.8161 0.0753094 -0.0120141 0.0252383
5 -62.2681 -4.5002 89.1677 0.0923625 -0.00920225 0.00328583
6 -70.6854 -6.9729 115.14 0.0976417 -0.00469012 0.0417024
7 -74.1127 -9.037 142.26 0.125189 -0.00270566 0.00312773
8 -71.6831 -10.3348 169.53 0.11987 0.00443786 -0.0396154
9 -62.9949 -10.4353 195.521 0.139579 0.0243785 -0.00224417
10 -48.2512 -8.8904 218.577 0.0726694 0.0235976 -0.115639
11 -28.3143 -5.3586 237.043 0.128843 0.0470366 -0.0626594
12 -4.61816 0.360805 249.585 0.0858611 0.0576722 -0.104621
13 20.9945 8.2889 255.339 -0.0958871 0.0110395 -0.130295
14 46.4947 18.2418 253.972 -0.0501582 0.0322779 -0.0885418
15 69.9093 29.8414 245.71 0.0437755 0.0922051 -0.1494
16 89.4535 42.5083 231.228 -0.151295 -0.0148919 -0.0200831
17 103.573 55.4732 211.633 -0.113622 -0.00377702 -0.0160237
18 111.129 67.8114 188.357 -0.107858 -0.00523915 -0.0154375
19 111.455 78.4793 163.116 -0.119545 0.00415598 -0.0474893
20 104.469 86.4071 137.822 -0.0793945 -0.0619823 0.107702
21 90.7335 90.5608 114.48 -0.109896 -0.0483488 0.0382714
22 71.5 90.1544 94.9646 -0.0556829 -0.0671351 0.0970838
23 48.6652 84.739 80.8184 -0.0412393 -0.0749073 0.101429
24 24.5498 74.3199 73.0141 0.0669594 -0.0316874 0.120975
25 1.63054 59.3586 71.8234 0.0270981 -0.0665422 0.106685
26 -17.7975 40.6801 76.7735 0.0784636 -0.0110929 0.0729192
27 -31.8577 19.3683 86.7162 0.0630157 -0.0841613 0.0996121
28 -39.1868 -3.4326 100.053 0.111815 0.0213736 0.0243658
29 -38.9732 -26.5127 114.835 0.105635 0.00108563 0.0142734
30 -30.9709 -48.6384 128.897 0.128589 -0.00701389 -0.0102021
31 -15.5539 -68.4518 139.908 0.0406134 0.0899819 -0.0911188
32 6.01332 -84.3897 145.52 0.0419453 0.07135 -0.0990479
33 31.2851 -94.7987 143.747 0.0347892 0.0681492 -0.137353
34 56.4855 -98.3427 133.625 -0.0916359 0.109089 -0.133868
35 77.0528 -94.5867 115.944 -0.181749 0.0772374 -0.0694735
36 89.0338 -84.5917 93.4472 -0.197948 0.0343964 -0.0146043
37 90.6004 -70.6734 69.9176 -0.196563 0.0196295 0.0117064
38 82.4509 -55.4423 48.6494 -0.190428 -0.00307843 0.0352542
39 66.9171 -40.862 31.3842 -0.0474857 -0.0937811 0.135103
40 46.6742 -27.827 18.2609 -0.0149191 -0.0618779 0.0678802
41 23.8813 -16.2892 8.292 -0.124115 0.0281478 -0.00141499
42 -3.55271e-15 -5.6067 1.42109e-14 0.737103 -0.09865 -0.0978263
