ITEM: TIMESTEP
0
ITEM: NUMBER OF ENTRIES
738
ITEM: BOX BOUNDS pp pp pp
-3.6000000000000000e+04 3.6000000000000000e+04
-1.2000000000000000e+04 3.6000000000000000e+04
-3.6000000000000000e+04 3.6000000000000000e+04
ITEM: ENTRIES c_batomIDs[1] c_batomIDs[2] c_distCalc[1] c_distCalc[2] c_distCalc[3] c_distCalc[4]
1 2 27.4213 17.8064 2.445 -20.7094 
2 3 27.4167 16.9552 2.4874 -21.4011 
3 4 27.4275 15.1693 2.5718 -22.7056 
4 5 27.4222 12.3372 2.6027 -24.3516 
5 6 27.4141 8.4173 2.4727 -25.9724 
6 7 27.413 3.4273 2.0641 -27.1195 
7 8 27.4095 -2.4296 1.2978 -27.2707 
8 9 27.4043 -8.6882 0.1005 -25.9904 
9 10 27.4106 -14.7437 -1.5449 -23.056 
10 11 27.4034 -19.9369 -3.5318 -18.466 
11 12 27.4139 -23.6962 -5.7194 -12.542 
12 13 27.4221 -25.6126 -7.9281 -5.754 
13 14 27.4078 -25.5002 -9.95292 1.367 
14 15 27.4054 -23.4146 -11.5996 8.262 
15 16 27.4254 -19.5442 -12.6669 14.482 
16 17 27.412 -14.1196 -12.9649 19.595 
17 18 27.4061 -7.556 -12.3382 23.276 
18 19 27.4046 -0.326 -10.6679 25.2409 
19 20 27.4124 6.986 -7.9278 25.294 
20 21 27.3996 13.7356 -4.1537 23.3413 
21 22 27.4037 19.2335 0.4064 19.5159 
22 23 27.402 22.8348 5.4154 14.1462 
23 24 27.4047 24.1154 10.4191 7.80431 
24 25 27.3962 22.9192 14.9613 1.1907 
25 26 27.4014 19.4281 18.6785 -4.9501 
26 27 27.3996 14.0602 21.3118 -9.94273 
27 28 27.4127 7.3291 22.8009 -13.3364 
28 29 27.4091 -0.2136 23.0801 -14.7825 
29 30 27.41 -8.0023 22.1257 -14.0615 
30 31 27.4137 -15.417 19.8134 -11.0116 
31 32 27.398 -21.5672 15.9379 -5.6115 
32 33 27.3889 -25.2718 10.409 1.7725 
33 34 27.3876 -25.2004 3.544 10.1222 
34 35 27.3816 -20.5673 -3.756 17.6814 
35 36 27.3776 -11.981 -9.995 22.4964 
36 37 27.3828 -1.5666 -13.9183 23.5296 
37 38 27.3996 8.1495 -15.2311 21.2682 
38 39 27.4221 15.5338 -14.5803 17.2652 
39 40 27.4209 20.2429 -13.035 13.1233 
40 41 27.4229 22.7929 -11.5378 9.9689 
41 42 27.4443 23.8813 -10.6825 8.292 
43 44 27.4213 17.8064 2.445 -20.7094 
44 45 27.4167 16.9552 2.4874 -21.4011 
45 46 27.4275 15.1693 2.5718 -22.7056 
46 47 27.4222 12.3372 2.6027 -24.3516 
47 48 27.4141 8.4173 2.4727 -25.9724 
48 49 27.413 3.4273 2.0641 -27.1195 
49 50 27.4095 -2.4296 1.2978 -27.2707 
50 51 27.4043 -8.6882 0.1005 -25.9904 
51 52 27.4106 -14.7437 -1.5449 -23.056 
52 53 27.4034 -19.9369 -3.5318 -18.466 
53 54 27.4139 -23.6962 -5.7194 -12.542 
54 55 27.4221 -25.6126 -7.9281 -5.754 
55 56 27.4078 -25.5002 -9.95292 1.367 
56 57 27.4054 -23.4146 -11.5996 8.262 
57 58 27.4254 -19.5442 -12.6669 14.482 
58 59 27.412 -14.1196 -12.9649 19.595 
59 60 27.4061 -7.556 -12.3382 23.276 
60 61 27.4046 -0.326 -10.6679 25.2409 
61 62 27.4124 6.986 -7.9278 25.294 
62 63 27.3996 13.7356 -4.1537 23.3413 
63 64 27.4037 19.2335 0.4064 19.5159 
64 65 27.402 22.8348 5.4154 14.1462 
65 66 27.4047 24.1154 10.4191 7.80431 
66 67 27.3962 22.9192 14.9613 1.1907 
67 68 27.4014 19.4281 18.6785 -4.9501 
68 69 27.3996 14.0602 21.3118 -9.94273 
69 70 27.4127 7.3291 22.8009 -13.3364 
70 71 27.4091 -0.2136 23.0801 -14.7825 
71 72 27.41 -8.0023 22.1257 -14.0615 
72 73 27.4137 -15.417 19.8134 -11.0116 
73 74 27.398 -21.5672 15.9379 -5.6115 
74 75 27.3889 -25.2718 10.409 1.7725 
75 76 27.3876 -25.2004 3.544 10.1222 
76 77 27.3816 -20.5673 -3.756 17.6814 
77 78 27.3776 -11.981 -9.995 22.4964 
78 79 27.3828 -1.5666 -13.9183 23.5296 
79 80 27.3996 8.1495 -15.2311 21.2682 
80 81 27.4221 15.5338 -14.5803 17.2652 
81 82 27.4209 20.2429 -13.035 13.1233 
82 83 27.4229 22.7929 -11.5378 9.9689 
83 84 27.4443 23.8813 -10.6825 8.292 
85 86 27.4213 17.8064 2.445 -20.7094 
86 87 27.4167 16.9552 2.4874 -21.4011 
87 88 27.4275 15.1693 2.5718 -22.7056 
88 89 27.4222 12.3372 2.6027 -24.3516 
89 90 27.4141 8.4173 2.4727 -25.9724 
90 91 27.413 3.4273 2.0641 -27.1195 
91 92 27.4095 -2.4296 1.2978 -27.2707 
92 93 27.4043 -8.6882 0.1005 -25.9904 
93 94 27.4106 -14.7437 -1.5449 -23.056 
94 95 27.4034 -19.9369 -3.5318 -18.466 
95 96 27.4139 -23.6962 -5.7194 -12.542 
96 97 27.4221 -25.6126 -7.9281 -5.754 
97 98 27.4078 -25.5002 -9.95292 1.367 
98 99 27.4054 -23.4146 -11.5996 8.262 
99 100 27.4254 -19.5442 -12.6669 14.482 
100 101 27.412 -14.1196 -12.9649 19.595 
101 102 27.4061 -7.556 -12.3382 23.276 
102 103 27.4046 -0.326 -10.6679 25.2409 
103 104 27.4124 6.986 -7.9278 25.294 
104 105 27.3996 13.7356 -4.1537 23.3413 
105 106 27.4037 19.2335 0.4064 19.5159 
106 107 27.402 22.8348 5.4154 14.1462 
107 108 27.4047 24.1154 10.4191 7.80431 
108 109 27.3962 22.9192 14.9613 1.1907 
109 110 27.4014 19.4281 18.6785 -4.9501 
110 111 27.3996 14.0602 21.3118 -9.94273 
111 112 27.4127 7.3291 22.8009 -13.3364 
112 113 27.4091 -0.2136 23.0801 -14.7825 
113 114 27.41 -8.0023 22.1257 -14.0615 
114 115 27.4137 -15.417 19.8134 -11.0116 
115 116 27.398 -21.5672 15.9379 -5.6115 
116 117 27.3889 -25.2718 10.409 1.7725 
117 118 27.3876 -25.2004 3.544 10.1222 
118 119 27.3816 -20.5673 -3.756 17.6814 
119 120 27.3776 -11.981 -9.995 22.4964 
120 121 27.3828 -1.5666 -13.9183 23.5296 
121 122 27.3996 8.1495 -15.2311 21.2682 
122 123 27.4221 15.5338 -14.5803 17.2652 
123 124 27.4209 20.2429 -13.035 13.1233 
124 125 27.4229 22.7929 -11.5378 9.9689 
125 126 27.4443 23.8813 -10.6825 8.292 
127 128 27.4213 17.8064 2.445 -20.7094 
128 129 27.4167 16.9552 2.4874 -21.4011 
129 130 27.4275 15.1693 2.5718 -22.7056 
130 131 27.4222 12.3372 2.6027 -24.3516 
131 132 27.4141 8.4173 2.4727 -25.9724 
132 133 27.413 3.4273 2.0641 -27.1195 
133 134 27.4095 -2.4296 1.2978 -27.2707 
134 135 27.4043 -8.6882 0.1005 -25.9904 
135 136 27.4106 -14.7437 -1.5449 -23.056 
136 137 27.4034 -19.9369 -3.5318 -18.466 
137 138 27.4139 -23.6962 -5.7194 -12.542 
138 139 27.4221 -25.6126 -7.9281 -5.754 
139 140 27.4078 -25.5002 -9.95292 1.367 
140 141 27.4054 -23.4146 -11.5996 8.262 
141 142 27.4254 -19.5442 -12.6669 14.482 
142 143 27.412 -14.1196 -12.9649 19.595 
143 144 27.4061 -7.556 -12.3382 23.276 
144 145 27.4046 -0.326 -10.6679 25.2409 
145 146 27.4124 6.986 -7.9278 25.294 
146 147 27.3996 13.7356 -4.1537 23.3413 
147 148 27.4037 19.2335 0.4064 19.5159 
148 149 27.402 22.8348 5.4154 14.1462 
149 150 27.4047 24.1154 10.4191 7.80431 
150 151 27.3962 22.9192 14.9613 1.1907 
151 152 27.4014 19.4281 18.6785 -4.9501 
152 153 27.3996 14.0602 21.3118 -9.94273 
153 154 27.4127 7.3291 22.8009 -13.3364 
154 155 27.4091 -0.2136 23.0801 -14.7825 
155 156 27.41 -8.0023 22.1257 -14.0615 
156 157 27.4137 -15.417 19.8134 -11.0116 
157 158 27.398 -21.5672 15.9379 -5.6115 
158 159 27.3889 -25.2718 10.409 1.7725 
159 160 27.3876 -25.2004 3.544 10.1222 
160 161 27.3816 -20.5673 -3.756 17.6814 
161 162 27.3776 -11.981 -9.995 22.4964 
162 163 27.3828 -1.5666 -13.9183 23.5296 
163 164 27.3996 8.1495 -15.2311 21.2682 
164 165 27.4221 15.5338 -14.5803 17.2652 
165 166 27.4209 20.2429 -13.035 13.1233 
166 167 27.4229 22.7929 -11.5378 9.9689 
167 168 27.4443 23.8813 -10.6825 8.292 
169 170 27.4213 17.8064 2.445 -20.7094 
170 171 27.4167 16.9552 2.4874 -21.4011 
171 172 27.4275 15.1693 2.5718 -22.7056 
172 173 27.4222 12.3372 2.6027 -24.3516 
173 174 27.4141 8.4173 2.4727 -25.9724 
174 175 27.413 3.4273 2.0641 -27.1195 
175 176 27.4095 -2.4296 1.2978 -27.2707 
176 177 27.4043 -8.6882 0.1005 -25.9904 
177 178 27.4106 -14.7437 -1.5449 -23.056 
178 179 27.4034 -19.9369 -3.5318 -18.466 
179 180 27.4139 -23.6962 -5.7194 -12.542 
180 181 27.4221 -25.6126 -7.9281 -5.754 
181 182 27.4078 -25.5002 -9.95292 1.367 
182 183 27.4054 -23.4146 -11.5996 8.262 
183 184 27.4254 -19.5442 -12.6669 14.482 
184 185 27.412 -14.1196 -12.9649 19.595 
185 186 27.4061 -7.556 -12.3382 23.276 
186 187 27.4046 -0.326 -10.6679 25.2409 
187 188 27.4124 6.986 -7.9278 25.294 
188 189 27.3996 13.7356 -4.1537 23.3413 
189 190 27.4037 19.2335 0.4064 19.5159 
190 191 27.402 22.8348 5.4154 14.1462 
191 192 27.4047 24.1154 10.4191 7.80431 
192 193 27.3962 22.9192 14.9613 1.1907 
193 194 27.4014 19.4281 18.6785 -4.9501 
194 195 27.3996 14.0602 21.3118 -9.94273 
195 196 27.4127 7.3291 22.8009 -13.3364 
196 197 27.4091 -0.2136 23.0801 -14.7825 
197 198 27.41 -8.0023 22.1257 -14.0615 
198 199 27.4137 -15.417 19.8134 -11.0116 
199 200 27.398 -21.5672 15.9379 -5.6115 
200 201 27.3889 -25.2718 10.409 1.7725 
201 202 27.3876 -25.2004 3.544 10.1222 
202 203 27.3816 -20.5673 -3.756 17.6814 
203 204 27.3776 -11.981 -9.995 22.4964 
204 205 27.3828 -1.5666 -13.9183 23.5296 
205 206 27.3996 8.1495 -15.2311 21.2682 
206 207 27.4221 15.5338 -14.5803 17.2652 
207 208 27.4209 20.2429 -13.035 13.1233 
208 209 27.4229 22.7929 -11.5378 9.9689 
209 210 27.4443 23.8813 -10.6825 8.292 
211 212 27.4213 17.8064 2.445 -20.7094 
212 213 27.4167 16.9552 2.4874 -21.4011 
213 214 27.4275 15.1693 2.5718 -22.7056 
214 215 27.4222 12.3372 2.6027 -24.3516 
215 216 27.4141 8.4173 2.4727 -25.9724 
216 217 27.413 3.4273 2.0641 -27.1195 
217 218 27.4095 -2.4296 1.2978 -27.2707 
218 219 27.4043 -8.6882 0.1005 -25.9904 
219 220 27.4106 -14.7437 -1.5449 -23.056 
220 221 27.4034 -19.9369 -3.5318 -18.466 
221 222 27.4139 -23.6962 -5.7194 -12.542 
222 223 27.4221 -25.6126 -7.9281 -5.754 
223 224 27.4078 -25.5002 -9.95292 1.367 
224 225 27.4054 -23.4146 -11.5996 8.262 
225 226 27.4254 -19.5442 -12.6669 14.482 
226 227 27.412 -14.1196 -12.9649 19.595 
227 228 27.4061 -7.556 -12.3382 23.276 
228 229 27.4046 -0.326 -10.6679 25.2409 
229 230 27.4124 6.986 -7.9278 25.294 
230 231 27.3996 13.7356 -4.1537 23.3413 
231 232 27.4037 19.2335 0.4064 19.5159 
232 233 27.402 22.8348 5.4154 14.1462 
233 234 27.4047 24.1154 10.4191 7.80431 
234 235 27.3962 22.9192 14.9613 1.1907 
235 236 27.4014 19.4281 18.6785 -4.9501 
236 237 27.3996 14.0602 21.3118 -9.94273 
237 238 27.4127 7.3291 22.8009 -13.3364 
238 239 27.4091 -0.2136 23.0801 -14.7825 
239 240 27.41 -8.0023 22.1257 -14.0615 
240 241 27.4137 -15.417 19.8134 -11.0116 
241 242 27.398 -21.5672 15.9379 -5.6115 
242 243 27.3889 -25.2718 10.409 1.7725 
243 244 27.3876 -25.2004 3.544 10.1222 
244 245 27.3816 -20.5673 -3.756 17.6814 
245 246 27.3776 -11.981 -9.995 22.4964 
246 247 27.3828 -1.5666 -13.9183 23.5296 
247 248 27.3996 8.1495 -15.2311 21.2682 
248 249 27.4221 15.5338 -14.5803 17.2652 
249 250 27.4209 20.2429 -13.035 13.1233 
250 251 27.4229 22.7929 -11.5378 9.9689 
251 252 27.4443 23.8813 -10.6825 8.292 
253 254 27.4213 17.8064 2.445 -20.7094 
254 255 27.4167 16.9552 2.4874 -21.4011 
255 256 27.4275 15.1693 2.5718 -22.7056 
256 257 27.4222 12.3372 2.6027 -24.3516 
257 258 27.4141 8.4173 2.4727 -25.9724 
258 259 27.413 3.4273 2.0641 -27.1195 
259 260 27.4095 -2.4296 1.2978 -27.2707 
260 261 27.4043 -8.6882 0.1005 -25.9904 
261 262 27.4106 -14.7437 -1.5449 -23.056 
262 263 27.4034 -19.9369 -3.5318 -18.466 
263 264 27.4139 -23.6962 -5.7194 -12.542 
264 265 27.4221 -25.6126 -7.9281 -5.754 
265 266 27.4078 -25.5002 -9.95292 1.367 
266 267 27.4054 -23.4146 -11.5996 8.262 
267 268 27.4254 -19.5442 -12.6669 14.482 
268 269 27.412 -14.1196 -12.9649 19.595 
269 270 27.4061 -7.556 -12.3382 23.276 
270 271 27.4046 -0.326 -10.6679 25.2409 
271 272 27.4124 6.986 -7.9278 25.294 
272 273 27.3996 13.7356 -4.1537 23.3413 
273 274 27.4037 19.2335 0.4064 19.5159 
274 275 27.402 22.8348 5.4154 14.1462 
275 276 27.4047 24.1154 10.4191 7.80431 
276 277 27.3962 22.9192 14.9613 1.1907 
277 278 27.4014 19.4281 18.6785 -4.9501 
278 279 27.3996 14.0602 21.3118 -9.94273 
279 280 27.4127 7.3291 22.8009 -13.3364 
280 281 27.4091 -0.2136 23.0801 -14.7825 
281 282 27.41 -8.0023 22.1257 -14.0615 
282 283 27.4137 -15.417 19.8134 -11.0116 
283 284 27.398 -21.5672 15.9379 -5.6115 
284 285 27.3889 -25.2718 10.409 1.7725 
285 286 27.3876 -25.2004 3.544 10.1222 
286 287 27.3816 -20.5673 -3.756 17.6814 
287 288 27.3776 -11.981 -9.995 22.4964 
288 289 27.3828 -1.5666 -13.9183 23.5296 
289 290 27.3996 8.1495 -15.2311 21.2682 
290 291 27.4221 15.5338 -14.5803 17.2652 
291 292 27.4209 20.2429 -13.035 13.1233 
292 293 27.4229 22.7929 -11.5378 9.9689 
293 294 27.4443 23.8813 -10.6825 8.292 
295 296 27.4213 17.8064 2.445 -20.7094 
296 297 27.4167 16.9552 2.4874 -21.4011 
297 298 27.4275 15.1693 2.5718 -22.7056 
298 299 27.4222 12.3372 2.6027 -24.3516 
299 300 27.4141 8.4173 2.4727 -25.9724 
300 301 27.413 3.4273 2.0641 -27.1195 
301 302 27.4095 -2.4296 1.2978 -27.2707 
302 303 27.4043 -8.6882 0.1005 -25.9904 
303 304 27.4106 -14.7437 -1.5449 -23.056 
304 305 27.4034 -19.9369 -3.5318 -18.466 
305 306 27.4139 -23.6962 -5.7194 -12.542 
306 307 27.4221 -25.6126 -7.9281 -5.754 
307 308 27.4078 -25.5002 -9.95292 1.367 
308 309 27.4054 -23.4146 -11.5996 8.262 
309 310 27.4254 -19.5442 -12.6669 14.482 
310 311 27.412 -14.1196 -12.9649 19.595 
311 312 27.4061 -7.556 -12.3382 23.276 
312 313 27.4046 -0.326 -10.6679 25.2409 
313 314 27.4124 6.986 -7.9278 25.294 
314 315 27.3996 13.7356 -4.1537 23.3413 
315 316 27.4037 19.2335 0.4064 19.5159 
316 317 27.402 22.8348 5.4154 14.1462 
317 318 27.4047 24.1154 10.4191 7.80431 
318 319 27.3962 22.9192 14.9613 1.1907 
319 320 27.4014 19.4281 18.6785 -4.9501 
320 321 27.3996 14.0602 21.3118 -9.94273 
321 322 27.4127 7.3291 22.8009 -13.3364 
322 323 27.4091 -0.2136 23.0801 -14.7825 
323 324 27.41 -8.0023 22.1257 -14.0615 
324 325 27.4137 -15.417 19.8134 -11.0116 
325 326 27.398 -21.5672 15.9379 -5.6115 
326 327 27.3889 -25.2718 10.409 1.7725 
327 328 27.3876 -25.2004 3.544 10.1222 
328 329 27.3816 -20.5673 -3.756 17.6814 
329 330 27.3776 -11.981 -9.995 22.4964 
330 331 27.3828 -1.5666 -13.9183 23.5296 
331 332 27.3996 8.1495 -15.2311 21.2682 
332 333 27.4221 15.5338 -14.5803 17.2652 
333 334 27.4209 20.2429 -13.035 13.1233 
334 335 27.4229 22.7929 -11.5378 9.9689 
335 336 27.4443 23.8813 -10.6825 8.292 
337 338 27.4213 17.8064 2.445 -20.7094 
338 339 27.4167 16.9552 2.4874 -21.4011 
339 340 27.4275 15.1693 2.5718 -22.7056 
340 341 27.4222 12.3372 2.6027 -24.3516 
341 342 27.4141 8.4173 2.4727 -25.9724 
342 343 27.413 3.4273 2.0641 -27.1195 
343 344 27.4095 -2.4296 1.2978 -27.2707 
344 345 27.4043 -8.6882 0.1005 -25.9904 
345 346 27.4106 -14.7437 -1.5449 -23.056 
346 347 27.4034 -19.9369 -3.5318 -18.466 
347 348 27.4139 -23.6962 -5.7194 -12.542 
348 349 27.4221 -25.6126 -7.9281 -5.754 
349 350 27.4078 -25.5002 -9.95292 1.367 
350 351 27.4054 -23.4146 -11.5996 8.262 
351 352 27.4254 -19.5442 -12.6669 14.482 
352 353 27.412 -14.1196 -12.9649 19.595 
353 354 27.4061 -7.556 -12.3382 23.276 
354 355 27.4046 -0.326 -10.6679 25.2409 
355 356 27.4124 6.986 -7.9278 25.294 
356 357 27.3996 13.7356 -4.1537 23.3413 
357 358 27.4037 19.2335 0.4064 19.5159 
358 359 27.402 22.8348 5.4154 14.1462 
359 360 27.4047 24.1154 10.4191 7.80431 
360 361 27.3962 22.9192 14.9613 1.1907 
361 362 27.4014 19.4281 18.6785 -4.9501 
362 363 27.3996 14.0602 21.3118 -9.94273 
363 364 27.4127 7.3291 22.8009 -13.3364 
364 365 27.4091 -0.2136 23.0801 -14.7825 
365 366 27.41 -8.0023 22.1257 -14.0615 
366 367 27.4137 -15.417 19.8134 -11.0116 
367 368 27.398 -21.5672 15.9379 -5.6115 
368 369 27.3889 -25.2718 10.409 1.7725 
369 370 27.3876 -25.2004 3.544 10.1222 
370 371 27.3816 -20.5673 -3.756 17.6814 
371 372 27.3776 -11.981 -9.995 22.4964 
372 373 27.3828 -1.5666 -13.9183 23.5296 
373 374 27.3996 8.1495 -15.2311 21.2682 
374 375 27.4221 15.5338 -14.5803 17.2652 
375 376 27.4209 20.2429 -13.035 13.1233 
376 377 27.4229 22.7929 -11.5378 9.9689 
377 378 27.4443 23.8813 -10.6825 8.292 
379 380 27.4213 17.8064 2.445 -20.7094 
380 381 27.4167 16.9552 2.4874 -21.4011 
381 382 27.4275 15.1693 2.5718 -22.7056 
382 383 27.4222 12.3372 2.6027 -24.3516 
383 384 27.4141 8.4173 2.4727 -25.9724 
384 385 27.413 3.4273 2.0641 -27.1195 
385 386 27.4095 -2.4296 1.2978 -27.2707 
386 387 27.4043 -8.6882 0.1005 -25.9904 
387 388 27.4106 -14.7437 -1.5449 -23.056 
388 389 27.4034 -19.9369 -3.5318 -18.466 
389 390 27.4139 -23.6962 -5.7194 -12.542 
390 391 27.4221 -25.6126 -7.9281 -5.754 
391 392 27.4078 -25.5002 -9.95292 1.367 
392 393 27.4054 -23.4146 -11.5996 8.262 
393 394 27.4254 -19.5442 -12.6669 14.482 
394 395 27.412 -14.1196 -12.9649 19.595 
395 396 27.4061 -7.556 -12.3382 23.276 
396 397 27.4046 -0.326 -10.6679 25.2409 
397 398 27.4124 6.986 -7.9278 25.294 
398 399 27.3996 13.7356 -4.1537 23.3413 
399 400 27.4037 19.2335 0.4064 19.5159 
400 401 27.402 22.8348 5.4154 14.1462 
401 402 27.4047 24.1154 10.4191 7.80431 
402 403 27.3962 22.9192 14.9613 1.1907 
403 404 27.4014 19.4281 18.6785 -4.9501 
404 405 27.3996 14.0602 21.3118 -9.94273 
405 406 27.4127 7.3291 22.8009 -13.3364 
406 407 27.4091 -0.2136 23.0801 -14.7825 
407 408 27.41 -8.0023 22.1257 -14.0615 
408 409 27.4137 -15.417 19.8134 -11.0116 
409 410 27.398 -21.5672 15.9379 -5.6115 
410 411 27.3889 -25.2718 10.409 1.7725 
411 412 27.3876 -25.2004 3.544 10.1222 
412 413 27.3816 -20.5673 -3.756 17.6814 
413 414 27.3776 -11.981 -9.995 22.4964 
414 415 27.3828 -1.5666 -13.9183 23.5296 
415 416 27.3996 8.1495 -15.2311 21.2682 
416 417 27.4221 15.5338 -14.5803 17.2652 
417 418 27.4209 20.2429 -13.035 13.1233 
418 419 27.4229 22.7929 -11.5378 9.9689 
419 420 27.4443 23.8813 -10.6825 8.292 
421 422 27.4213 17.8064 2.445 -20.7094 
422 423 27.4167 16.9552 2.4874 -21.4011 
423 424 27.4275 15.1693 2.5718 -22.7056 
424 425 27.4222 12.3372 2.6027 -24.3516 
425 426 27.4141 8.4173 2.4727 -25.9724 
426 427 27.413 3.4273 2.0641 -27.1195 
427 428 27.4095 -2.4296 1.2978 -27.2707 
428 429 27.4043 -8.6882 0.1005 -25.9904 
429 430 27.4106 -14.7437 -1.5449 -23.056 
430 431 27.4034 -19.9369 -3.5318 -18.466 
431 432 27.4139 -23.6962 -5.7194 -12.542 
432 433 27.4221 -25.6126 -7.9281 -5.754 
433 434 27.4078 -25.5002 -9.95292 1.367 
434 435 27.4054 -23.4146 -11.5996 8.262 
435 436 27.4254 -19.5442 -12.6669 14.482 
436 437 27.412 -14.1196 -12.9649 19.595 
437 438 27.4061 -7.556 -12.3382 23.276 
438 439 27.4046 -0.326 -10.6679 25.2409 
439 440 27.4124 6.986 -7.9278 25.294 
440 441 27.3996 13.7356 -4.1537 23.3413 
441 442 27.4037 19.2335 0.4064 19.5159 
442 443 27.402 22.8348 5.4154 14.1462 
443 444 27.4047 24.1154 10.4191 7.80431 
444 445 27.3962 22.9192 14.9613 1.1907 
445 446 27.4014 19.4281 18.6785 -4.9501 
446 447 27.3996 14.0602 21.3118 -9.94273 
447 448 27.4127 7.3291 22.8009 -13.3364 
448 449 27.4091 -0.2136 23.0801 -14.7825 
449 450 27.41 -8.0023 22.1257 -14.0615 
450 451 27.4137 -15.417 19.8134 -11.0116 
451 452 27.398 -21.5672 15.9379 -5.6115 
452 453 27.3889 -25.2718 10.409 1.7725 
453 454 27.3876 -25.2004 3.544 10.1222 
454 455 27.3816 -20.5673 -3.756 17.6814 
455 456 27.3776 -11.981 -9.995 22.4964 
456 457 27.3828 -1.5666 -13.9183 23.5296 
457 458 27.3996 8.1495 -15.2311 21.2682 
458 459 27.4221 15.5338 -14.5803 17.2652 
459 460 27.4209 20.2429 -13.035 13.1233 
460 461 27.4229 22.7929 -11.5378 9.9689 
461 462 27.4443 23.8813 -10.6825 8.292 
463 464 27.4213 17.8064 2.445 -20.7094 
464 465 27.4167 16.9552 2.4874 -21.4011 
465 466 27.4275 15.1693 2.5718 -22.7056 
466 467 27.4222 12.3372 2.6027 -24.3516 
467 468 27.4141 8.4173 2.4727 -25.9724 
468 469 27.413 3.4273 2.0641 -27.1195 
469 470 27.4095 -2.4296 1.2978 -27.2707 
470 471 27.4043 -8.6882 0.1005 -25.9904 
471 472 27.4106 -14.7437 -1.5449 -23.056 
472 473 27.4034 -19.9369 -3.5318 -18.466 
473 474 27.4139 -23.6962 -5.7194 -12.542 
474 475 27.4221 -25.6126 -7.9281 -5.754 
475 476 27.4078 -25.5002 -9.95292 1.367 
476 477 27.4054 -23.4146 -11.5996 8.262 
477 478 27.4254 -19.5442 -12.6669 14.482 
478 479 27.412 -14.1196 -12.9649 19.595 
479 480 27.4061 -7.556 -12.3382 23.276 
480 481 27.4046 -0.326 -10.6679 25.2409 
481 482 27.4124 6.986 -7.9278 25.294 
482 483 27.3996 13.7356 -4.1537 23.3413 
483 484 27.4037 19.2335 0.4064 19.5159 
484 485 27.402 22.8348 5.4154 14.1462 
485 486 27.4047 24.1154 10.4191 7.80431 
486 487 27.3962 22.9192 14.9613 1.1907 
487 488 27.4014 19.4281 18.6785 -4.9501 
488 489 27.3996 14.0602 21.3118 -9.94273 
489 490 27.4127 7.3291 22.8009 -13.3364 
490 491 27.4091 -0.2136 23.0801 -14.7825 
491 492 27.41 -8.0023 22.1257 -14.0615 
492 493 27.4137 -15.417 19.8134 -11.0116 
493 494 27.398 -21.5672 15.9379 -5.6115 
494 495 27.3889 -25.2718 10.409 1.7725 
495 496 27.3876 -25.2004 3.544 10.1222 
496 497 27.3816 -20.5673 -3.756 17.6814 
497 498 27.3776 -11.981 -9.995 22.4964 
498 499 27.3828 -1.5666 -13.9183 23.5296 
499 500 27.3996 8.1495 -15.2311 21.2682 
500 501 27.4221 15.5338 -14.5803 17.2652 
501 502 27.4209 20.2429 -13.035 13.1233 
502 503 27.4229 22.7929 -11.5378 9.9689 
503 504 27.4443 23.8813 -10.6825 8.292 
505 506 27.4213 17.8064 2.445 -20.7094 
506 507 27.4167 16.9552 2.4874 -21.4011 
507 508 27.4275 15.1693 2.5718 -22.7056 
508 509 27.4222 12.3372 2.6027 -24.3516 
509 510 27.4141 8.4173 2.4727 -25.9724 
510 511 27.413 3.4273 2.0641 -27.1195 
511 512 27.4095 -2.4296 1.2978 -27.2707 
512 513 27.4043 -8.6882 0.1005 -25.9904 
513 514 27.4106 -14.7437 -1.5449 -23.056 
514 515 27.4034 -19.9369 -3.5318 -18.466 
515 516 27.4139 -23.6962 -5.7194 -12.542 
516 517 27.4221 -25.6126 -7.9281 -5.754 
517 518 27.4078 -25.5002 -9.95292 1.367 
518 519 27.4054 -23.4146 -11.5996 8.262 
519 520 27.4254 -19.5442 -12.6669 14.482 
520 521 27.412 -14.1196 -12.9649 19.595 
521 522 27.4061 -7.556 -12.3382 23.276 
522 523 27.4046 -0.326 -10.6679 25.2409 
523 524 27.4124 6.986 -7.9278 25.294 
524 525 27.3996 13.7356 -4.1537 23.3413 
525 526 27.4037 19.2335 0.4064 19.5159 
526 527 27.402 22.8348 5.4154 14.1462 
527 528 27.4047 24.1154 10.4191 7.80431 
528 529 27.3962 22.9192 14.9613 1.1907 
529 530 27.4014 19.4281 18.6785 -4.9501 
530 531 27.3996 14.0602 21.3118 -9.94273 
531 532 27.4127 7.3291 22.8009 -13.3364 
532 533 27.4091 -0.2136 23.0801 -14.7825 
533 534 27.41 -8.0023 22.1257 -14.0615 
534 535 27.4137 -15.417 19.8134 -11.0116 
535 536 27.398 -21.5672 15.9379 -5.6115 
536 537 27.3889 -25.2718 10.409 1.7725 
537 538 27.3876 -25.2004 3.544 10.1222 
538 539 27.3816 -20.5673 -3.756 17.6814 
539 540 27.3776 -11.981 -9.995 22.4964 
540 541 27.3828 -1.5666 -13.9183 23.5296 
541 542 27.3996 8.1495 -15.2311 21.2682 
542 543 27.4221 15.5338 -14.5803 17.2652 
543 544 27.4209 20.2429 -13.035 13.1233 
544 545 27.4229 22.7929 -11.5378 9.9689 
545 546 27.4443 23.8813 -10.6825 8.292 
547 548 27.4213 17.8064 2.445 -20.7094 
548 549 27.4167 16.9552 2.4874 -21.4011 
549 550 27.4275 15.1693 2.5718 -22.7056 
550 551 27.4222 12.3372 2.6027 -24.3516 
551 552 27.4141 8.4173 2.4727 -25.9724 
552 553 27.413 3.4273 2.0641 -27.1195 
553 554 27.4095 -2.4296 1.2978 -27.2707 
554 555 27.4043 -8.6882 0.1005 -25.9904 
555 556 27.4106 -14.7437 -1.5449 -23.056 
556 557 27.4034 -19.9369 -3.5318 -18.466 
557 558 27.4139 -23.6962 -5.7194 -12.542 
558 559 27.4221 -25.6126 -7.9281 -5.754 
559 560 27.4078 -25.5002 -9.95292 1.367 
560 561 27.4054 -23.4146 -11.5996 8.262 
561 562 27.4254 -19.5442 -12.6669 14.482 
562 563 27.412 -14.1196 -12.9649 19.595 
563 564 27.4061 -7.556 -12.3382 23.276 
564 565 27.4046 -0.326 -10.6679 25.2409 
565 566 27.4124 6.986 -7.9278 25.294 
566 567 27.3996 13.7356 -4.1537 23.3413 
567 568 27.4037 19.2335 0.4064 19.5159 
568 569 27.402 22.8348 5.4154 14.1462 
569 570 27.4047 24.1154 10.4191 7.80431 
570 571 27.3962 22.9192 14.9613 1.1907 
571 572 27.4014 19.4281 18.6785 -4.9501 
572 573 27.3996 14.0602 21.3118 -9.94273 
573 574 27.4127 7.3291 22.8009 -13.3364 
574 575 27.4091 -0.2136 23.0801 -14.7825 
575 576 27.41 -8.0023 22.1257 -14.0615 
576 577 27.4137 -15.417 19.8134 -11.0116 
577 578 27.398 -21.5672 15.9379 -5.6115 
578 579 27.3889 -25.2718 10.409 1.7725 
579 580 27.3876 -25.2004 3.544 10.1222 
580 581 27.3816 -20.5673 -3.756 17.6814 
581 582 27.3776 -11.981 -9.995 22.4964 
582 583 27.3828 -1.5666 -13.9183 23.5296 
583 584 27.3996 8.1495 -15.2311 21.2682 
584 585 27.4221 15.5338 -14.5803 17.2652 
585 586 27.4209 20.2429 -13.035 13.1233 
586 587 27.4229 22.7929 -11.5378 9.9689 
587 588 27.4443 23.8813 -10.6825 8.292 
589 590 27.4213 17.8064 2.445 -20.7094 
590 591 27.4167 16.9552 2.4874 -21.4011 
591 592 27.4275 15.1693 2.5718 -22.7056 
592 593 27.4222 12.3372 2.6027 -24.3516 
593 594 27.4141 8.4173 2.4727 -25.9724 
594 595 27.413 3.4273 2.0641 -27.1195 
595 596 27.4095 -2.4296 1.2978 -27.2707 
596 597 27.4043 -8.6882 0.1005 -25.9904 
597 598 27.4106 -14.7437 -1.5449 -23.056 
598 599 27.4034 -19.9369 -3.5318 -18.466 
599 600 27.4139 -23.6962 -5.7194 -12.542 
600 601 27.4221 -25.6126 -7.9281 -5.754 
601 602 27.4078 -25.5002 -9.95292 1.367 
602 603 27.4054 -23.4146 -11.5996 8.262 
603 604 27.4254 -19.5442 -12.6669 14.482 
604 605 27.412 -14.1196 -12.9649 19.595 
605 606 27.4061 -7.556 -12.3382 23.276 
606 607 27.4046 -0.326 -10.6679 25.2409 
607 608 27.4124 6.986 -7.9278 25.294 
608 609 27.3996 13.7356 -4.1537 23.3413 
609 610 27.4037 19.2335 0.4064 19.5159 
610 611 27.402 22.8348 5.4154 14.1462 
611 612 27.4047 24.1154 10.4191 7.80431 
612 613 27.3962 22.9192 14.9613 1.1907 
613 614 27.4014 19.4281 18.6785 -4.9501 
614 615 27.3996 14.0602 21.3118 -9.94273 
615 616 27.4127 7.3291 22.8009 -13.3364 
616 617 27.4091 -0.2136 23.0801 -14.7825 
617 618 27.41 -8.0023 22.1257 -14.0615 
618 619 27.4137 -15.417 19.8134 -11.0116 
619 620 27.398 -21.5672 15.9379 -5.6115 
620 621 27.3889 -25.2718 10.409 1.7725 
621 622 27.3876 -25.2004 3.544 10.1222 
622 623 27.3816 -20.5673 -3.756 17.6814 
623 624 27.3776 -11.981 -9.995 22.4964 
624 625 27.3828 -1.5666 -13.9183 23.5296 
625 626 27.3996 8.1495 -15.2311 21.2682 
626 627 27.4221 15.5338 -14.5803 17.2652 
627 628 27.4209 20.2429 -13.035 13.1233 
628 629 27.4229 22.7929 -11.5378 9.9689 
629 630 27.4443 23.8813 -10.6825 8.292 
631 632 27.4213 17.8064 2.445 -20.7094 
632 633 27.4167 16.9552 2.4874 -21.4011 
633 634 27.4275 15.1693 2.5718 -22.7056 
634 635 27.4222 12.3372 2.6027 -24.3516 
635 636 27.4141 8.4173 2.4727 -25.9724 
636 637 27.413 3.4273 2.0641 -27.1195 
637 638 27.4095 -2.4296 1.2978 -27.2707 
638 639 27.4043 -8.6882 0.1005 -25.9904 
639 640 27.4106 -14.7437 -1.5449 -23.056 
640 641 27.4034 -19.9369 -3.5318 -18.466 
641 642 27.4139 -23.6962 -5.7194 -12.542 
642 643 27.4221 -25.6126 -7.9281 -5.754 
643 644 27.4078 -25.5002 -9.95292 1.367 
644 645 27.4054 -23.4146 -11.5996 8.262 
645 646 27.4254 -19.5442 -12.6669 14.482 
646 647 27.412 -14.1196 -12.9649 19.595 
647 648 27.4061 -7.556 -12.3382 23.276 
648 649 27.4046 -0.326 -10.6679 25.2409 
649 650 27.4124 6.986 -7.9278 25.294 
650 651 27.3996 13.7356 -4.1537 23.3413 
651 652 27.4037 19.2335 0.4064 19.5159 
652 653 27.402 22.8348 5.4154 14.1462 
653 654 27.4047 24.1154 10.4191 7.80431 
654 655 27.3962 22.9192 14.9613 1.1907 
655 656 27.4014 19.4281 18.6785 -4.9501 
656 657 27.3996 14.0602 21.3118 -9.94273 
657 658 27.4127 7.3291 22.8009 -13.3364 
658 659 27.4091 -0.2136 23.0801 -14.7825 
659 660 27.41 -8.0023 22.1257 -14.0615 
660 661 27.4137 -15.417 19.8134 -11.0116 
661 662 27.398 -21.5672 15.9379 -5.6115 
662 663 27.3889 -25.2718 10.409 1.7725 
663 664 27.3876 -25.2004 3.544 10.1222 
664 665 27.3816 -20.5673 -3.756 17.6814 
665 666 27.3776 -11.981 -9.995 22.4964 
666 667 27.3828 -1.5666 -13.9183 23.5296 
667 668 27.3996 8.1495 -15.2311 21.2682 
668 669 27.4221 15.5338 -14.5803 17.2652 
669 670 27.4209 20.2429 -13.035 13.1233 
670 671 27.4229 22.7929 -11.5378 9.9689 
671 672 27.4443 23.8813 -10.6825 8.292 
673 674 27.4213 17.8064 2.445 -20.7094 
674 675 27.4167 16.9552 2.4874 -21.4011 
675 676 27.4275 15.1693 2.5718 -22.7056 
676 677 27.4222 12.3372 2.6027 -24.3516 
677 678 27.4141 8.4173 2.4727 -25.9724 
678 679 27.413 3.4273 2.0641 -27.1195 
679 680 27.4095 -2.4296 1.2978 -27.2707 
680 681 27.4043 -8.6882 0.1005 -25.9904 
681 682 27.4106 -14.7437 -1.5449 -23.056 
682 683 27.4034 -19.9369 -3.5318 -18.466 
683 684 27.4139 -23.6962 -5.7194 -12.542 
684 685 27.4221 -25.6126 -7.9281 -5.754 
685 686 27.4078 -25.5002 -9.95292 1.367 
686 687 27.4054 -23.4146 -11.5996 8.262 
687 688 27.4254 -19.5442 -12.6669 14.482 
688 689 27.412 -14.1196 -12.9649 19.595 
689 690 27.4061 -7.556 -12.3382 23.276 
690 691 27.4046 -0.326 -10.6679 25.2409 
691 692 27.4124 6.986 -7.9278 25.294 
692 693 27.3996 13.7356 -4.1537 23.3413 
693 694 27.4037 19.2335 0.4064 19.5159 
694 695 27.402 22.8348 5.4154 14.1462 
695 696 27.4047 24.1154 10.4191 7.80431 
696 697 27.3962 22.9192 14.9613 1.1907 
697 698 27.4014 19.4281 18.6785 -4.9501 
698 699 27.3996 14.0602 21.3118 -9.94273 
699 700 27.4127 7.3291 22.8009 -13.3364 
700 701 27.4091 -0.2136 23.0801 -14.7825 
701 702 27.41 -8.0023 22.1257 -14.0615 
702 703 27.4137 -15.417 19.8134 -11.0116 
703 704 27.398 -21.5672 15.9379 -5.6115 
704 705 27.3889 -25.2718 10.409 1.7725 
705 706 27.3876 -25.2004 3.544 10.1222 
706 707 27.3816 -20.5673 -3.756 17.6814 
707 708 27.3776 -11.981 -9.995 22.4964 
708 709 27.3828 -1.5666 -13.9183 23.5296 
709 710 27.3996 8.1495 -15.2311 21.2682 
710 711 27.4221 15.5338 -14.5803 17.2652 
711 712 27.4209 20.2429 -13.035 13.1233 
712 713 27.4229 22.7929 -11.5378 9.9689 
713 714 27.4443 23.8813 -10.6825 8.292 
715 716 27.4213 17.8064 2.445 -20.7094 
716 717 27.4167 16.9552 2.4874 -21.4011 
717 718 27.4275 15.1693 2.5718 -22.7056 
718 719 27.4222 12.3372 2.6027 -24.3516 
719 720 27.4141 8.4173 2.4727 -25.9724 
720 721 27.413 3.4273 2.0641 -27.1195 
721 722 27.4095 -2.4296 1.2978 -27.2707 
722 723 27.4043 -8.6882 0.1005 -25.9904 
723 724 27.4106 -14.7437 -1.5449 -23.056 
724 725 27.4034 -19.9369 -3.5318 -18.466 
725 726 27.4139 -23.6962 -5.7194 -12.542 
726 727 27.4221 -25.6126 -7.9281 -5.754 
727 728 27.4078 -25.5002 -9.95292 1.367 
728 729 27.4054 -23.4146 -11.5996 8.262 
729 730 27.4254 -19.5442 -12.6669 14.482 
730 731 27.412 -14.1196 -12.9649 19.595 
731 732 27.4061 -7.556 -12.3382 23.276 
732 733 27.4046 -0.326 -10.6679 25.2409 
733 734 27.4124 6.986 -7.9278 25.294 
734 735 27.3996 13.7356 -4.1537 23.3413 
735 736 27.4037 19.2335 0.4064 19.5159 
736 737 27.402 22.8348 5.4154 14.1462 
737 738 27.4047 24.1154 10.4191 7.80431 
738 739 27.3962 22.9192 14.9613 1.1907 
739 740 27.4014 19.4281 18.6785 -4.9501 
740 741 27.3996 14.0602 21.3118 -9.94273 
741 742 27.4127 7.3291 22.8009 -13.3364 
742 743 27.4091 -0.2136 23.0801 -14.7825 
743 744 27.41 -8.0023 22.1257 -14.0615 
744 745 27.4137 -15.417 19.8134 -11.0116 
745 746 27.398 -21.5672 15.9379 -5.6115 
746 747 27.3889 -25.2718 10.409 1.7725 
747 748 27.3876 -25.2004 3.544 10.1222 
748 749 27.3816 -20.5673 -3.756 17.6814 
749 750 27.3776 -11.981 -9.995 22.4964 
750 751 27.3828 -1.5666 -13.9183 23.5296 
751 752 27.3996 8.1495 -15.2311 21.2682 
752 753 27.4221 15.5338 -14.5803 17.2652 
753 754 27.4209 20.2429 -13.035 13.1233 
754 755 27.4229 22.7929 -11.5378 9.9689 
755 756 27.4443 23.8813 -10.6825 8.292 
ITEM: TIMESTEP
1
ITEM: NUMBER OF ENTRIES
738
ITEM: BOX BOUNDS pp pp pp
-3.6000000000000000e+04 3.6000000000000000e+04
-1.2000000000000000e+04 3.6000000000000000e+04
-3.6000000000000000e+04 3.6000000000000000e+04
ITEM: ENTRIES c_batomIDs[1] c_batomIDs[2] c_distCalc[1] c_distCalc[2] c_distCalc[3] c_distCalc[4]
1 2 27.4213 17.8064 2.445 -20.7094 
2 3 27.4167 16.9552 2.4874 -21.4011 
3 4 27.4275 15.1693 2.5718 -22.7056 
4 5 27.4222 12.3372 2.6027 -24.3516 
5 6 27.4141 8.4173 2.4727 -25.9724 
6 7 27.413 3.4273 2.0641 -27.1195 
7 8 27.4095 -2.4296 1.2978 -27.2707 
8 9 27.4043 -8.6882 0.1005 -25.9904 
9 10 27.4106 -14.7437 -1.5449 -23.056 
10 11 27.4034 -19.9369 -3.5318 -18.466 
11 12 27.4139 -23.6962 -5.7194 -12.542 
12 13 27.4221 -25.6126 -7.9281 -5.754 
13 14 27.4078 -25.5002 -9.95292 1.367 
14 15 27.4054 -23.4146 -11.5996 8.262 
15 16 27.4254 -19.5442 -12.6669 14.482 
16 17 27.412 -14.1196 -12.9649 19.595 
17 18 27.4061 -7.556 -12.3382 23.276 
18 19 27.4046 -0.325999 -10.6679 25.2409 
19 20 27.4124 6.986 -7.9278 25.294 
20 21 27.3996 13.7356 -4.1537 23.3413 
21 22 27.4037 19.2335 0.4064 19.5159 
22 23 27.402 22.8348 5.4154 14.1462 
23 24 27.4047 24.1154 10.4191 7.80431 
24 25 27.3962 22.9192 14.9613 1.1907 
25 26 27.4014 19.4281 18.6785 -4.9501 
26 27 27.3996 14.0602 21.3118 -9.94273 
27 28 27.4127 7.3291 22.8009 -13.3364 
28 29 27.4091 -0.2136 23.0801 -14.7825 
29 30 27.41 -8.0023 22.1257 -14.0615 
30 31 27.4137 -15.417 19.8134 -11.0116 
31 32 27.398 -21.5672 15.9379 -5.6115 
32 33 27.3889 -25.2718 10.409 1.7725 
33 34 27.3876 -25.2004 3.544 10.1222 
34 35 27.3816 -20.5673 -3.756 17.6814 
35 36 27.3776 -11.981 -9.995 22.4964 
36 37 27.3828 -1.5666 -13.9183 23.5296 
37 38 27.3996 8.1495 -15.2311 21.2682 
38 39 27.4221 15.5338 -14.5803 17.2652 
39 40 27.4209 20.2429 -13.035 13.1233 
40 41 27.4229 22.7929 -11.5378 9.9689 
41 42 27.4443 23.8813 -10.6825 8.292 
43 44 27.4213 17.8064 2.445 -20.7094 
44 45 27.4167 16.9552 2.4874 -21.4011 
45 46 27.4275 15.1693 2.5718 -22.7056 
46 47 27.4222 12.3372 2.6027 -24.3516 
47 48 27.4141 8.4173 2.4727 -25.9724 
48 49 27.413 3.4273 2.0641 -27.1195 
49 50 27.4095 -2.4296 1.2978 -27.2707 
50 51 27.4043 -8.6882 0.100501 -25.9904 
51 52 27.4106 -14.7437 -1.5449 -23.056 
52 53 27.4034 -19.9369 -3.5318 -18.466 
53 54 27.4139 -23.6962 -5.7194 -12.542 
54 55 27.4221 -25.6126 -7.9281 -5.754 
55 56 27.4078 -25.5002 -9.95292 1.367 
56 57 27.4054 -23.4146 -11.5996 8.262 
57 58 27.4254 -19.5442 -12.6669 14.482 
58 59 27.412 -14.1196 -12.9649 19.595 
59 60 27.4061 -7.556 -12.3382 23.276 
60 61 27.4046 -0.326 -10.6679 25.2409 
61 62 27.4124 6.986 -7.9278 25.294 
62 63 27.3996 13.7356 -4.1537 23.3413 
63 64 27.4037 19.2335 0.4064 19.5159 
64 65 27.402 22.8348 5.4154 14.1462 
65 66 27.4047 24.1154 10.4191 7.80431 
66 67 27.3962 22.9192 14.9613 1.1907 
67 68 27.4014 19.4281 18.6785 -4.9501 
68 69 27.3996 14.0602 21.3118 -9.94273 
69 70 27.4127 7.3291 22.8009 -13.3364 
70 71 27.4091 -0.2136 23.0801 -14.7825 
71 72 27.41 -8.0023 22.1257 -14.0615 
72 73 27.4137 -15.417 19.8134 -11.0116 
73 74 27.398 -21.5672 15.9379 -5.6115 
74 75 27.3889 -25.2718 10.409 1.7725 
75 76 27.3876 -25.2004 3.544 10.1222 
76 77 27.3816 -20.5673 -3.756 17.6814 
77 78 27.3776 -11.981 -9.995 22.4964 
78 79 27.3828 -1.5666 -13.9183 23.5296 
79 80 27.3996 8.1495 -15.2311 21.2682 
80 81 27.4221 15.5338 -14.5803 17.2652 
81 82 27.4209 20.2429 -13.035 13.1233 
82 83 27.4229 22.7929 -11.5378 9.9689 
83 84 27.4443 23.8813 -10.6825 8.292 
85 86 27.4213 17.8064 2.445 -20.7094 
86 87 27.4167 16.9552 2.4874 -21.4011 
87 88 27.4275 15.1693 2.5718 -22.7056 
88 89 27.4222 12.3372 2.6027 -24.3516 
89 90 27.4141 8.4173 2.4727 -25.9724 
90 91 27.413 3.4273 2.0641 -27.1195 
91 92 27.4095 -2.4296 1.2978 -27.2707 
92 93 27.4043 -8.6882 0.1005 -25.9904 
93 94 27.4106 -14.7437 -1.5449 -23.056 
94 95 27.4034 -19.9369 -3.5318 -18.466 
95 96 27.4139 -23.6962 -5.7194 -12.542 
96 97 27.4221 -25.6126 -7.9281 -5.754 
97 98 27.4078 -25.5002 -9.95292 1.367 
98 99 27.4054 -23.4146 -11.5996 8.262 
99 100 27.4254 -19.5442 -12.6669 14.482 
100 101 27.412 -14.1196 -12.9649 19.595 
101 102 27.4061 -7.556 -12.3382 23.276 
102 103 27.4046 -0.326 -10.6679 25.2409 
103 104 27.4124 6.986 -7.9278 25.294 
104 105 27.3996 13.7356 -4.1537 23.3413 
105 106 27.4037 19.2335 0.4064 19.5159 
106 107 27.402 22.8348 5.4154 14.1462 
107 108 27.4047 24.1154 10.4191 7.80431 
108 109 27.3962 22.9192 14.9613 1.1907 
109 110 27.4014 19.4281 18.6785 -4.9501 
110 111 27.3996 14.0602 21.3118 -9.94273 
111 112 27.4127 7.3291 22.8009 -13.3364 
112 113 27.4091 -0.2136 23.0801 -14.7825 
113 114 27.41 -8.0023 22.1257 -14.0615 
114 115 27.4137 -15.417 19.8134 -11.0116 
115 116 27.398 -21.5672 15.9379 -5.6115 
116 117 27.3889 -25.2718 10.409 1.7725 
117 118 27.3876 -25.2004 3.544 10.1222 
118 119 27.3816 -20.5673 -3.756 17.6814 
119 120 27.3776 -11.981 -9.995 22.4964 
120 121 27.3828 -1.5666 -13.9183 23.5296 
121 122 27.3996 8.1495 -15.2311 21.2682 
122 123 27.4221 15.5338 -14.5803 17.2652 
123 124 27.4209 20.2429 -13.035 13.1233 
124 125 27.4229 22.7929 -11.5378 9.9689 
125 126 27.4443 23.8813 -10.6825 8.292 
127 128 27.4213 17.8064 2.445 -20.7094 
128 129 27.4167 16.9552 2.4874 -21.4011 
129 130 27.4275 15.1693 2.5718 -22.7056 
130 131 27.4222 12.3372 2.6027 -24.3516 
131 132 27.4141 8.4173 2.4727 -25.9724 
132 133 27.413 3.4273 2.0641 -27.1195 
133 134 27.4095 -2.4296 1.2978 -27.2707 
134 135 27.4043 -8.6882 0.1005 -25.9904 
135 136 27.4106 -14.7437 -1.5449 -23.056 
136 137 27.4034 -19.9369 -3.5318 -18.466 
137 138 27.4139 -23.6962 -5.7194 -12.542 
138 139 27.4221 -25.6126 -7.9281 -5.754 
139 140 27.4078 -25.5002 -9.95292 1.367 
140 141 27.4054 -23.4146 -11.5996 8.262 
141 142 27.4254 -19.5442 -12.6669 14.482 
142 143 27.412 -14.1196 -12.9649 19.595 
143 144 27.4061 -7.556 -12.3382 23.276 
144 145 27.4046 -0.326 -10.6679 25.2409 
145 146 27.4124 6.986 -7.9278 25.294 
146 147 27.3996 13.7356 -4.1537 23.3413 
147 148 27.4037 19.2335 0.406401 19.5159 
148 149 27.402 22.8348 5.4154 14.1462 
149 150 27.4047 24.1154 10.4191 7.80431 
150 151 27.3962 22.9192 14.9613 1.1907 
151 152 27.4014 19.4281 18.6785 -4.9501 
152 153 27.3996 14.0602 21.3118 -9.94273 
153 154 27.4127 7.3291 22.8009 -13.3364 
154 155 27.4091 -0.2136 23.0801 -14.7825 
155 156 27.41 -8.0023 22.1257 -14.0615 
156 157 27.4137 -15.417 19.8134 -11.0116 
157 158 27.398 -21.5672 15.9379 -5.6115 
158 159 27.3889 -25.2718 10.409 1.7725 
159 160 27.3876 -25.2004 3.544 10.1222 
160 161 27.3816 -20.5673 -3.756 17.6814 
161 162 27.3776 -11.981 -9.995 22.4964 
162 163 27.3828 -1.5666 -13.9183 23.5296 
163 164 27.3996 8.1495 -15.2311 21.2682 
164 165 27.4221 15.5338 -14.5803 17.2652 
165 166 27.4209 20.2429 -13.035 13.1233 
166 167 27.4229 22.7929 -11.5378 9.9689 
167 168 27.4443 23.8813 -10.6825 8.292 
169 170 27.4213 17.8064 2.445 -20.7094 
170 171 27.4167 16.9552 2.4874 -21.4011 
171 172 27.4275 15.1693 2.5718 -22.7056 
172 173 27.4222 12.3372 2.6027 -24.3516 
173 174 27.4141 8.4173 2.4727 -25.9724 
174 175 27.413 3.4273 2.0641 -27.1195 
175 176 27.4095 -2.4296 1.2978 -27.2707 
176 177 27.4043 -8.6882 0.1005 -25.9904 
177 178 27.4106 -14.7437 -1.5449 -23.056 
178 179 27.4034 -19.9369 -3.5318 -18.466 
179 180 27.4139 -23.6962 -5.7194 -12.542 
180 181 27.4221 -25.6126 -7.9281 -5.754 
181 182 27.4078 -25.5002 -9.95292 1.367 
182 183 27.4054 -23.4146 -11.5996 8.262 
183 184 27.4254 -19.5442 -12.6669 14.482 
184 185 27.412 -14.1196 -12.9649 19.595 
185 186 27.4061 -7.556 -12.3382 23.276 
186 187 27.4046 -0.326 -10.6679 25.2409 
187 188 27.4124 6.986 -7.9278 25.294 
188 189 27.3996 13.7356 -4.1537 23.3413 
189 190 27.4037 19.2335 0.4064 19.5159 
190 191 27.402 22.8348 5.4154 14.1462 
191 192 27.4047 24.1154 10.4191 7.80431 
192 193 27.3962 22.9192 14.9613 1.1907 
193 194 27.4014 19.4281 18.6785 -4.9501 
194 195 27.3996 14.0602 21.3118 -9.94273 
195 196 27.4127 7.3291 22.8009 -13.3364 
196 197 27.4091 -0.2136 23.0801 -14.7825 
197 198 27.41 -8.0023 22.1257 -14.0615 
198 199 27.4137 -15.417 19.8134 -11.0116 
199 200 27.398 -21.5672 15.9379 -5.6115 
200 201 27.3889 -25.2718 10.409 1.7725 
201 202 27.3876 -25.2004 3.544 10.1222 
202 203 27.3816 -20.5673 -3.756 17.6814 
203 204 27.3776 -11.981 -9.995 22.4964 
204 205 27.3828 -1.5666 -13.9183 23.5296 
205 206 27.3996 8.1495 -15.2311 21.2682 
206 207 27.4221 15.5338 -14.5803 17.2652 
207 208 27.4209 20.2429 -13.035 13.1233 
208 209 27.4229 22.7929 -11.5378 9.9689 
209 210 27.4443 23.8813 -10.6825 8.292 
211 212 27.4213 17.8064 2.445 -20.7094 
212 213 27.4167 16.9552 2.4874 -21.4011 
213 214 27.4275 15.1693 2.5718 -22.7056 
214 215 27.4222 12.3372 2.6027 -24.3516 
215 216 27.4141 8.4173 2.4727 -25.9724 
216 217 27.413 3.4273 2.0641 -27.1195 
217 218 27.4095 -2.4296 1.2978 -27.2707 
218 219 27.4043 -8.6882 0.1005 -25.9904 
219 220 27.4106 -14.7437 -1.5449 -23.056 
220 221 27.4034 -19.9369 -3.5318 -18.466 
221 222 27.4139 -23.6962 -5.7194 -12.542 
222 223 27.4221 -25.6126 -7.9281 -5.754 
223 224 27.4078 -25.5002 -9.95292 1.367 
224 225 27.4054 -23.4146 -11.5996 8.262 
225 226 27.4254 -19.5442 -12.6669 14.482 
226 227 27.412 -14.1196 -12.9649 19.595 
227 228 27.4061 -7.556 -12.3382 23.276 
228 229 27.4046 -0.325999 -10.6679 25.2409 
229 230 27.4124 6.986 -7.9278 25.294 
230 231 27.3996 13.7356 -4.1537 23.3413 
231 232 27.4037 19.2335 0.4064 19.5159 
232 233 27.402 22.8348 5.4154 14.1462 
233 234 27.4047 24.1154 10.4191 7.80431 
234 235 27.3962 22.9192 14.9613 1.1907 
235 236 27.4014 19.4281 18.6785 -4.9501 
236 237 27.3996 14.0602 21.3118 -9.94273 
237 238 27.4127 7.3291 22.8009 -13.3364 
238 239 27.4091 -0.2136 23.0801 -14.7825 
239 240 27.41 -8.0023 22.1257 -14.0615 
240 241 27.4137 -15.417 19.8134 -11.0116 
241 242 27.398 -21.5672 15.9379 -5.6115 
242 243 27.3889 -25.2718 10.409 1.7725 
243 244 27.3876 -25.2004 3.544 10.1222 
244 245 27.3816 -20.5673 -3.756 17.6814 
245 246 27.3776 -11.981 -9.995 22.4964 
246 247 27.3828 -1.5666 -13.9183 23.5296 
247 248 27.3996 8.1495 -15.2311 21.2682 
248 249 27.4221 15.5338 -14.5803 17.2652 
249 250 27.4209 20.2429 -13.035 13.1233 
250 251 27.4229 22.7929 -11.5378 9.9689 
251 252 27.4443 23.8813 -10.6825 8.292 
253 254 27.4213 17.8064 2.445 -20.7094 
254 255 27.4167 16.9552 2.4874 -21.4011 
255 256 27.4275 15.1693 2.5718 -22.7056 
256 257 27.4222 12.3372 2.6027 -24.3516 
257 258 27.4141 8.4173 2.4727 -25.9724 
258 259 27.413 3.4273 2.0641 -27.1195 
259 260 27.4095 -2.4296 1.2978 -27.2707 
260 261 27.4043 -8.6882 0.1005 -25.9904 
261 262 27.4106 -14.7437 -1.5449 -23.056 
262 263 27.4034 -19.9369 -3.5318 -18.466 
263 264 27.4139 -23.6962 -5.7194 -12.542 
264 265 27.4221 -25.6126 -7.9281 -5.754 
265 266 27.4078 -25.5002 -9.95292 1.367 
266 267 27.4054 -23.4146 -11.5996 8.262 
267 268 27.4254 -19.5442 -12.6669 14.482 
268 269 27.412 -14.1196 -12.9649 19.595 
269 270 27.4061 -7.556 -12.3382 23.276 
270 271 27.4046 -0.326 -10.6679 25.2409 
271 272 27.4124 6.986 -7.9278 25.294 
272 273 27.3996 13.7356 -4.1537 23.3413 
273 274 27.4037 19.2335 0.4064 19.5159 
274 275 27.402 22.8348 5.4154 14.1462 
275 276 27.4047 24.1154 10.4191 7.80431 
276 277 27.3962 22.9192 14.9613 1.1907 
277 278 27.4014 19.4281 18.6785 -4.9501 
278 279 27.3996 14.0602 21.3118 -9.94273 
279 280 27.4127 7.3291 22.8009 -13.3364 
280 281 27.4091 -0.2136 23.0801 -14.7825 
281 282 27.41 -8.0023 22.1257 -14.0615 
282 283 27.4137 -15.417 19.8134 -11.0116 
283 284 27.398 -21.5672 15.9379 -5.6115 
284 285 27.3889 -25.2718 10.409 1.7725 
285 286 27.3876 -25.2004 3.544 10.1222 
286 287 27.3816 -20.5673 -3.756 17.6814 
287 288 27.3776 -11.981 -9.995 22.4964 
288 289 27.3828 -1.5666 -13.9183 23.5296 
289 290 27.3996 8.1495 -15.2311 21.2682 
290 291 27.4221 15.5338 -14.5803 17.2652 
291 292 27.4209 20.2429 -13.035 13.1233 
292 293 27.4229 22.7929 -11.5378 9.9689 
293 294 27.4443 23.8813 -10.6825 8.292 
295 296 27.4213 17.8064 2.445 -20.7094 
296 297 27.4167 16.9552 2.4874 -21.4011 
297 298 27.4275 15.1693 2.5718 -22.7056 
298 299 27.4222 12.3372 2.6027 -24.3516 
299 300 27.4141 8.4173 2.4727 -25.9724 
300 301 27.413 3.4273 2.0641 -27.1195 
301 302 27.4095 -2.4296 1.2978 -27.2707 
302 303 27.4043 -8.6882 0.1005 -25.9904 
303 304 27.4106 -14.7437 -1.5449 -23.056 
304 305 27.4034 -19.9369 -3.5318 -18.466 
305 306 27.4139 -23.6962 -5.7194 -12.542 
306 307 27.4221 -25.6126 -7.9281 -5.754 
307 308 27.4078 -25.5002 -9.95292 1.367 
308 309 27.4054 -23.4146 -11.5996 8.262 
309 310 27.4254 -19.5442 -12.6669 14.482 
310 311 27.412 -14.1196 -12.9649 19.595 
311 312 27.4061 -7.556 -12.3382 23.276 
312 313 27.4046 -0.326 -10.6679 25.2409 
313 314 27.4124 6.986 -7.9278 25.294 
314 315 27.3996 13.7356 -4.1537 23.3413 
315 316 27.4037 19.2335 0.4064 19.5159 
316 317 27.402 22.8348 5.4154 14.1462 
317 318 27.4047 24.1154 10.4191 7.80431 
318 319 27.3962 22.9192 14.9613 1.1907 
319 320 27.4014 19.4281 18.6785 -4.9501 
320 321 27.3996 14.0602 21.3118 -9.94273 
321 322 27.4127 7.3291 22.8009 -13.3364 
322 323 27.4091 -0.2136 23.0801 -14.7825 
323 324 27.41 -8.0023 22.1257 -14.0615 
324 325 27.4137 -15.417 19.8134 -11.0116 
325 326 27.398 -21.5672 15.9379 -5.6115 
326 327 27.3889 -25.2718 10.409 1.7725 
327 328 27.3876 -25.2004 3.544 10.1222 
328 329 27.3816 -20.5673 -3.756 17.6814 
329 330 27.3776 -11.981 -9.995 22.4964 
330 331 27.3828 -1.5666 -13.9183 23.5296 
331 332 27.3996 8.1495 -15.2311 21.2682 
332 333 27.4221 15.5338 -14.5803 17.2652 
333 334 27.4209 20.2429 -13.035 13.1233 
334 335 27.4229 22.7929 -11.5378 9.9689 
335 336 27.4443 23.8813 -10.6825 8.292 
337 338 27.4213 17.8064 2.445 -20.7094 
338 339 27.4167 16.9552 2.4874 -21.4011 
339 340 27.4275 15.1693 2.5718 -22.7056 
340 341 27.4222 12.3372 2.6027 -24.3516 
341 342 27.4141 8.4173 2.4727 -25.9724 
342 343 27.413 3.4273 2.0641 -27.1195 
343 344 27.4095 -2.4296 1.2978 -27.2707 
344 345 27.4043 -8.6882 0.1005 -25.9904 
345 346 27.4106 -14.7437 -1.5449 -23.056 
346 347 27.4034 -19.9369 -3.5318 -18.466 
347 348 27.4139 -23.6962 -5.7194 -12.542 
348 349 27.4221 -25.6126 -7.9281 -5.754 
349 350 27.4078 -25.5002 -9.95292 1.367 
350 351 27.4054 -23.4146 -11.5996 8.262 
351 352 27.4254 -19.5442 -12.6669 14.482 
352 353 27.412 -14.1196 -12.9649 19.595 
353 354 27.4061 -7.556 -12.3382 23.276 
354 355 27.4046 -0.326 -10.6679 25.2409 
355 356 27.4124 6.986 -7.9278 25.294 
356 357 27.3996 13.7356 -4.1537 23.3413 
357 358 27.4037 19.2335 0.4064 19.5159 
358 359 27.402 22.8348 5.4154 14.1462 
359 360 27.4047 24.1154 10.4191 7.80431 
360 361 27.3962 22.9192 14.9613 1.1907 
361 362 27.4014 19.4281 18.6785 -4.9501 
362 363 27.3996 14.0602 21.3118 -9.94273 
363 364 27.4127 7.3291 22.8009 -13.3364 
364 365 27.4091 -0.2136 23.0801 -14.7825 
365 366 27.41 -8.0023 22.1257 -14.0615 
366 367 27.4137 -15.417 19.8134 -11.0116 
367 368 27.398 -21.5672 15.9379 -5.6115 
368 369 27.3889 -25.2718 10.409 1.7725 
369 370 27.3876 -25.2004 3.544 10.1222 
370 371 27.3816 -20.5673 -3.756 17.6814 
371 372 27.3776 -11.981 -9.995 22.4964 
372 373 27.3828 -1.5666 -13.9183 23.5296 
373 374 27.3996 8.1495 -15.2311 21.2682 
374 375 27.4221 15.5338 -14.5803 17.2652 
375 376 27.4209 20.2429 -13.035 13.1233 
376 377 27.4229 22.7929 -11.5378 9.9689 
377 378 27.4443 23.8813 -10.6825 8.292 
379 380 27.4213 17.8064 2.445 -20.7094 
380 381 27.4167 16.9552 2.4874 -21.4011 
381 382 27.4275 15.1693 2.5718 -22.7056 
382 383 27.4222 12.3372 2.6027 -24.3516 
383 384 27.4141 8.4173 2.4727 -25.9724 
384 385 27.413 3.4273 2.0641 -27.1195 
385 386 27.4095 -2.4296 1.2978 -27.2707 
386 387 27.4043 -8.6882 0.1005 -25.9904 
387 388 27.4106 -14.7437 -1.5449 -23.056 
388 389 27.4034 -19.9369 -3.5318 -18.466 
389 390 27.4139 -23.6962 -5.7194 -12.542 
390 391 27.4221 -25.6126 -7.9281 -5.754 
391 392 27.4078 -25.5002 -9.95292 1.367 
392 393 27.4054 -23.4146 -11.5996 8.262 
393 394 27.4254 -19.5442 -12.6669 14.482 
394 395 27.412 -14.1196 -12.9649 19.595 
395 396 27.4061 -7.556 -12.3382 23.276 
396 397 27.4046 -0.326 -10.6679 25.2409 
397 398 27.4124 6.986 -7.9278 25.294 
398 399 27.3996 13.7356 -4.1537 23.3413 
399 400 27.4037 19.2335 0.4064 19.5159 
400 401 27.402 22.8348 5.4154 14.1462 
401 402 27.4047 24.1154 10.4191 7.80431 
402 403 27.3962 22.9192 14.9613 1.1907 
403 404 27.4014 19.4281 18.6785 -4.9501 
404 405 27.3996 14.0602 21.3118 -9.94273 
405 406 27.4127 7.3291 22.8009 -13.3364 
406 407 27.4091 -0.2136 23.0801 -14.7825 
407 408 27.41 -8.0023 22.1257 -14.0615 
408 409 27.4137 -15.417 19.8134 -11.0116 
409 410 27.398 -21.5672 15.9379 -5.6115 
410 411 27.3889 -25.2718 10.409 1.7725 
411 412 27.3876 -25.2004 3.544 10.1222 
412 413 27.3816 -20.5673 -3.756 17.6814 
413 414 27.3776 -11.981 -9.995 22.4964 
414 415 27.3828 -1.5666 -13.9183 23.5296 
415 416 27.3996 8.1495 -15.2311 21.2682 
416 417 27.4221 15.5338 -14.5803 17.2652 
417 418 27.4209 20.2429 -13.035 13.1233 
418 419 27.4229 22.7929 -11.5378 9.9689 
419 420 27.4443 23.8813 -10.6825 8.292 
421 422 27.4213 17.8064 2.445 -20.7094 
422 423 27.4167 16.9552 2.4874 -21.4011 
423 424 27.4275 15.1693 2.5718 -22.7056 
424 425 27.4222 12.3372 2.6027 -24.3516 
425 426 27.4141 8.4173 2.4727 -25.9724 
426 427 27.413 3.4273 2.0641 -27.1195 
427 428 27.4095 -2.4296 1.2978 -27.2707 
428 429 27.4043 -8.6882 0.1005 -25.9904 
429 430 27.4106 -14.7437 -1.5449 -23.056 
430 431 27.4034 -19.9369 -3.5318 -18.466 
431 432 27.4139 -23.6962 -5.7194 -12.542 
432 433 27.4221 -25.6126 -7.9281 -5.754 
433 434 27.4078 -25.5002 -9.95292 1.367 
434 435 27.4054 -23.4146 -11.5996 8.262 
435 436 27.4254 -19.5442 -12.6669 14.482 
436 437 27.412 -14.1196 -12.9649 19.595 
437 438 27.4061 -7.556 -12.3382 23.276 
438 439 27.4046 -0.326 -10.6679 25.2409 
439 440 27.4124 6.986 -7.9278 25.294 
440 441 27.3996 13.7356 -4.1537 23.3413 
441 442 27.4037 19.2335 0.4064 19.5159 
442 443 27.402 22.8348 5.4154 14.1462 
443 444 27.4047 24.1154 10.4191 7.80431 
444 445 27.3962 22.9192 14.9613 1.1907 
445 446 27.4014 19.4281 18.6785 -4.9501 
446 447 27.3996 14.0602 21.3118 -9.94273 
447 448 27.4127 7.3291 22.8009 -13.3364 
448 449 27.4091 -0.2136 23.0801 -14.7825 
449 450 27.41 -8.0023 22.1257 -14.0615 
450 451 27.4137 -15.417 19.8134 -11.0116 
451 452 27.398 -21.5672 15.9379 -5.6115 
452 453 27.3889 -25.2718 10.409 1.7725 
453 454 27.3876 -25.2004 3.544 10.1222 
454 455 27.3816 -20.5673 -3.756 17.6814 
455 456 27.3776 -11.981 -9.995 22.4964 
456 457 27.3828 -1.5666 -13.9183 23.5296 
457 458 27.3996 8.1495 -15.2311 21.2682 
458 459 27.4221 15.5338 -14.5803 17.2652 
459 460 27.4209 20.2429 -13.035 13.1233 
460 461 27.4229 22.7929 -11.5378 9.9689 
461 462 27.4443 23.8813 -10.6825 8.292 
463 464 27.4213 17.8064 2.445 -20.7094 
464 465 27.4167 16.9552 2.4874 -21.4011 
465 466 27.4275 15.1693 2.5718 -22.7056 
466 467 27.4222 12.3372 2.6027 -24.3516 
467 468 27.4141 8.4173 2.4727 -25.9724 
468 469 27.413 3.4273 2.0641 -27.1195 
469 470 27.4095 -2.4296 1.2978 -27.2707 
470 471 27.4043 -8.6882 0.1005 -25.9904 
471 472 27.4106 -14.7437 -1.5449 -23.056 
472 473 27.4034 -19.9369 -3.5318 -18.466 
473 474 27.4139 -23.6962 -5.7194 -12.542 
474 475 27.4221 -25.6126 -7.9281 -5.754 
475 476 27.4078 -25.5002 -9.95292 1.367 
476 477 27.4054 -23.4146 -11.5996 8.262 
477 478 27.4254 -19.5442 -12.6669 14.482 
478 479 27.412 -14.1196 -12.9649 19.595 
479 480 27.4061 -7.556 -12.3382 23.276 
480 481 27.4046 -0.326001 -10.6679 25.2409 
481 482 27.4124 6.986 -7.9278 25.294 
482 483 27.3996 13.7356 -4.1537 23.3413 
483 484 27.4037 19.2335 0.4064 19.5159 
484 485 27.402 22.8348 5.4154 14.1462 
485 486 27.4047 24.1154 10.4191 7.80431 
486 487 27.3962 22.9192 14.9613 1.1907 
487 488 27.4014 19.4281 18.6785 -4.9501 
488 489 27.3996 14.0602 21.3118 -9.94273 
489 490 27.4127 7.3291 22.8009 -13.3364 
490 491 27.4091 -0.2136 23.0801 -14.7825 
491 492 27.41 -8.0023 22.1257 -14.0615 
492 493 27.4137 -15.417 19.8134 -11.0116 
493 494 27.398 -21.5672 15.9379 -5.6115 
494 495 27.3889 -25.2718 10.409 1.7725 
495 496 27.3876 -25.2004 3.544 10.1222 
496 497 27.3816 -20.5673 -3.756 17.6814 
497 498 27.3776 -11.981 -9.995 22.4964 
498 499 27.3828 -1.5666 -13.9183 23.5296 
499 500 27.3996 8.1495 -15.2311 21.2682 
500 501 27.4221 15.5338 -14.5803 17.2652 
501 502 27.4209 20.2429 -13.035 13.1233 
502 503 27.4229 22.7929 -11.5378 9.9689 
503 504 27.4443 23.8813 -10.6825 8.292 
505 506 27.4213 17.8064 2.445 -20.7094 
506 507 27.4167 16.9552 2.4874 -21.4011 
507 508 27.4275 15.1693 2.5718 -22.7056 
508 509 27.4222 12.3372 2.6027 -24.3516 
509 510 27.4141 8.4173 2.4727 -25.9724 
510 511 27.413 3.4273 2.0641 -27.1195 
511 512 27.4095 -2.4296 1.2978 -27.2707 
512 513 27.4043 -8.6882 0.1005 -25.9904 
513 514 27.4106 -14.7437 -1.5449 -23.056 
514 515 27.4034 -19.9369 -3.5318 -18.466 
515 516 27.4139 -23.6962 -5.7194 -12.542 
516 517 27.4221 -25.6126 -7.9281 -5.754 
517 518 27.4078 -25.5002 -9.95292 1.367 
518 519 27.4054 -23.4146 -11.5996 8.262 
519 520 27.4254 -19.5442 -12.6669 14.482 
520 521 27.412 -14.1196 -12.9649 19.595 
521 522 27.4061 -7.556 -12.3382 23.276 
522 523 27.4046 -0.326 -10.6679 25.2409 
523 524 27.4124 6.986 -7.9278 25.294 
524 525 27.3996 13.7356 -4.1537 23.3413 
525 526 27.4037 19.2335 0.4064 19.5159 
526 527 27.402 22.8348 5.4154 14.1462 
527 528 27.4047 24.1154 10.4191 7.80431 
528 529 27.3962 22.9192 14.9613 1.1907 
529 530 27.4014 19.4281 18.6785 -4.9501 
530 531 27.3996 14.0602 21.3118 -9.94273 
531 532 27.4127 7.3291 22.8009 -13.3364 
532 533 27.4091 -0.2136 23.0801 -14.7825 
533 534 27.41 -8.0023 22.1257 -14.0615 
534 535 27.4137 -15.417 19.8134 -11.0116 
535 536 27.398 -21.5672 15.9379 -5.6115 
536 537 27.3889 -25.2718 10.409 1.7725 
537 538 27.3876 -25.2004 3.544 10.1222 
538 539 27.3816 -20.5673 -3.756 17.6814 
539 540 27.3776 -11.981 -9.995 22.4964 
540 541 27.3828 -1.5666 -13.9183 23.5296 
541 542 27.3996 8.1495 -15.2311 21.2682 
542 543 27.4221 15.5338 -14.5803 17.2652 
543 544 27.4209 20.2429 -13.035 13.1233 
544 545 27.4229 22.7929 -11.5378 9.9689 
545 546 27.4443 23.8813 -10.6825 8.292 
547 548 27.4213 17.8064 2.445 -20.7094 
548 549 27.4167 16.9552 2.4874 -21.4011 
549 550 27.4275 15.1693 2.5718 -22.7056 
550 551 27.4222 12.3372 2.6027 -24.3516 
551 552 27.4141 8.4173 2.4727 -25.9724 
552 553 27.413 3.4273 2.0641 -27.1195 
553 554 27.4095 -2.4296 1.2978 -27.2707 
554 555 27.4043 -8.6882 0.1005 -25.9904 
555 556 27.4106 -14.7437 -1.5449 -23.056 
556 557 27.4034 -19.9369 -3.5318 -18.466 
557 558 27.4139 -23.6962 -5.7194 -12.542 
558 559 27.4221 -25.6126 -7.9281 -5.754 
559 560 27.4078 -25.5002 -9.95292 1.367 
560 561 27.4054 -23.4146 -11.5996 8.262 
561 562 27.4254 -19.5442 -12.6669 14.482 
562 563 27.412 -14.1196 -12.9649 19.595 
563 564 27.4061 -7.556 -12.3382 23.276 
564 565 27.4046 -0.326 -10.6679 25.2409 
565 566 27.4124 6.986 -7.9278 25.294 
566 567 27.3996 13.7356 -4.1537 23.3413 
567 568 27.4037 19.2335 0.4064 19.5159 
568 569 27.402 22.8348 5.4154 14.1462 
569 570 27.4047 24.1154 10.4191 7.80431 
570 571 27.3962 22.9192 14.9613 1.1907 
571 572 27.4014 19.4281 18.6785 -4.9501 
572 573 27.3996 14.0602 21.3118 -9.94273 
573 574 27.4127 7.3291 22.8009 -13.3364 
574 575 27.4091 -0.2136 23.0801 -14.7825 
575 576 27.41 -8.0023 22.1257 -14.0615 
576 577 27.4137 -15.417 19.8134 -11.0116 
577 578 27.398 -21.5672 15.9379 -5.6115 
578 579 27.3889 -25.2718 10.409 1.7725 
579 580 27.3876 -25.2004 3.544 10.1222 
580 581 27.3816 -20.5673 -3.756 17.6814 
581 582 27.3776 -11.981 -9.995 22.4964 
582 583 27.3828 -1.5666 -13.9183 23.5296 
583 584 27.3996 8.1495 -15.2311 21.2682 
584 585 27.4221 15.5338 -14.5803 17.2652 
585 586 27.4209 20.2429 -13.035 13.1233 
586 587 27.4229 22.7929 -11.5378 9.9689 
587 588 27.4443 23.8813 -10.6825 8.292 
589 590 27.4213 17.8064 2.445 -20.7094 
590 591 27.4167 16.9552 2.4874 -21.4011 
591 592 27.4275 15.1693 2.5718 -22.7056 
592 593 27.4222 12.3372 2.6027 -24.3516 
593 594 27.4141 8.4173 2.4727 -25.9724 
594 595 27.413 3.4273 2.0641 -27.1195 
595 596 27.4095 -2.4296 1.2978 -27.2707 
596 597 27.4043 -8.6882 0.100501 -25.9904 
597 598 27.4106 -14.7437 -1.5449 -23.056 
598 599 27.4034 -19.9369 -3.5318 -18.466 
599 600 27.4139 -23.6962 -5.7194 -12.542 
600 601 27.4221 -25.6126 -7.9281 -5.754 
601 602 27.4078 -25.5002 -9.95292 1.367 
602 603 27.4054 -23.4146 -11.5996 8.262 
603 604 27.4254 -19.5442 -12.6669 14.482 
604 605 27.412 -14.1196 -12.9649 19.595 
605 606 27.4061 -7.556 -12.3382 23.276 
606 607 27.4046 -0.326001 -10.6679 25.2409 
607 608 27.4124 6.986 -7.9278 25.294 
608 609 27.3996 13.7356 -4.1537 23.3413 
609 610 27.4037 19.2335 0.4064 19.5159 
610 611 27.402 22.8348 5.4154 14.1462 
611 612 27.4047 24.1154 10.4191 7.80431 
612 613 27.3962 22.9192 14.9613 1.1907 
613 614 27.4014 19.4281 18.6785 -4.9501 
614 615 27.3996 14.0602 21.3118 -9.94273 
615 616 27.4127 7.3291 22.8009 -13.3364 
616 617 27.4091 -0.2136 23.0801 -14.7825 
617 618 27.41 -8.0023 22.1257 -14.0615 
618 619 27.4137 -15.417 19.8134 -11.0116 
619 620 27.398 -21.5672 15.9379 -5.6115 
620 621 27.3889 -25.2718 10.409 1.7725 
621 622 27.3876 -25.2004 3.544 10.1222 
622 623 27.3816 -20.5673 -3.756 17.6814 
623 624 27.3776 -11.981 -9.995 22.4964 
624 625 27.3828 -1.5666 -13.9183 23.5296 
625 626 27.3996 8.1495 -15.2311 21.2682 
626 627 27.4221 15.5338 -14.5803 17.2652 
627 628 27.4209 20.2429 -13.035 13.1233 
628 629 27.4229 22.7929 -11.5378 9.9689 
629 630 27.4443 23.8813 -10.6825 8.292 
631 632 27.4213 17.8064 2.445 -20.7094 
632 633 27.4167 16.9552 2.4874 -21.4011 
633 634 27.4275 15.1693 2.5718 -22.7056 
634 635 27.4222 12.3372 2.6027 -24.3516 
635 636 27.4141 8.4173 2.4727 -25.9724 
636 637 27.413 3.4273 2.0641 -27.1195 
637 638 27.4095 -2.4296 1.2978 -27.2707 
638 639 27.4043 -8.6882 0.1005 -25.9904 
639 640 27.4106 -14.7437 -1.5449 -23.056 
640 641 27.4034 -19.9369 -3.5318 -18.466 
641 642 27.4139 -23.6962 -5.7194 -12.542 
642 643 27.4221 -25.6126 -7.9281 -5.754 
643 644 27.4078 -25.5002 -9.95292 1.367 
644 645 27.4054 -23.4146 -11.5996 8.262 
645 646 27.4254 -19.5442 -12.6669 14.482 
646 647 27.412 -14.1196 -12.9649 19.595 
647 648 27.4061 -7.556 -12.3382 23.276 
648 649 27.4046 -0.326001 -10.6679 25.2409 
649 650 27.4124 6.986 -7.9278 25.294 
650 651 27.3996 13.7356 -4.1537 23.3413 
651 652 27.4037 19.2335 0.4064 19.5159 
652 653 27.402 22.8348 5.4154 14.1462 
653 654 27.4047 24.1154 10.4191 7.80431 
654 655 27.3962 22.9192 14.9613 1.1907 
655 656 27.4014 19.4281 18.6785 -4.9501 
656 657 27.3996 14.0602 21.3118 -9.94273 
657 658 27.4127 7.3291 22.8009 -13.3364 
658 659 27.4091 -0.2136 23.0801 -14.7825 
659 660 27.41 -8.0023 22.1257 -14.0615 
660 661 27.4137 -15.417 19.8134 -11.0116 
661 662 27.398 -21.5672 15.9379 -5.6115 
662 663 27.3889 -25.2718 10.409 1.7725 
663 664 27.3876 -25.2004 3.544 10.1222 
664 665 27.3816 -20.5673 -3.756 17.6814 
665 666 27.3776 -11.981 -9.995 22.4964 
666 667 27.3828 -1.5666 -13.9183 23.5296 
667 668 27.3996 8.1495 -15.2311 21.2682 
668 669 27.4221 15.5338 -14.5803 17.2652 
669 670 27.4209 20.2429 -13.035 13.1233 
670 671 27.4229 22.7929 -11.5378 9.9689 
671 672 27.4443 23.8813 -10.6825 8.292 
673 674 27.4213 17.8064 2.445 -20.7094 
674 675 27.4167 16.9552 2.4874 -21.4011 
675 676 27.4275 15.1693 2.5718 -22.7056 
676 677 27.4222 12.3372 2.6027 -24.3516 
677 678 27.4141 8.4173 2.4727 -25.9724 
678 679 27.413 3.4273 2.0641 -27.1195 
679 680 27.4095 -2.4296 1.2978 -27.2707 
680 681 27.4043 -8.6882 0.100499 -25.9904 
681 682 27.4106 -14.7437 -1.5449 -23.056 
682 683 27.4034 -19.9369 -3.5318 -18.466 
683 684 27.4139 -23.6962 -5.7194 -12.542 
684 685 27.4221 -25.6126 -7.9281 -5.754 
685 686 27.4078 -25.5002 -9.95292 1.367 
686 687 27.4054 -23.4146 -11.5996 8.262 
687 688 27.4254 -19.5442 -12.6669 14.482 
688 689 27.412 -14.1196 -12.9649 19.595 
689 690 27.4061 -7.556 -12.3382 23.276 
690 691 27.4046 -0.326 -10.6679 25.2409 
691 692 27.4124 6.986 -7.9278 25.294 
692 693 27.3996 13.7356 -4.1537 23.3413 
693 694 27.4037 19.2335 0.4064 19.5159 
694 695 27.402 22.8348 5.4154 14.1462 
695 696 27.4047 24.1154 10.4191 7.80431 
696 697 27.3962 22.9192 14.9613 1.1907 
697 698 27.4014 19.4281 18.6785 -4.9501 
698 699 27.3996 14.0602 21.3118 -9.94273 
699 700 27.4127 7.3291 22.8009 -13.3364 
700 701 27.4091 -0.2136 23.0801 -14.7825 
701 702 27.41 -8.0023 22.1257 -14.0615 
702 703 27.4137 -15.417 19.8134 -11.0116 
703 704 27.398 -21.5672 15.9379 -5.6115 
704 705 27.3889 -25.2718 10.409 1.7725 
705 706 27.3876 -25.2004 3.544 10.1222 
706 707 27.3816 -20.5673 -3.756 17.6814 
707 708 27.3776 -11.981 -9.995 22.4964 
708 709 27.3828 -1.5666 -13.9183 23.5296 
709 710 27.3996 8.1495 -15.2311 21.2682 
710 711 27.4221 15.5338 -14.5803 17.2652 
711 712 27.4209 20.2429 -13.035 13.1233 
712 713 27.4229 22.7929 -11.5378 9.9689 
713 714 27.4443 23.8813 -10.6825 8.292 
715 716 27.4213 17.8064 2.445 -20.7094 
716 717 27.4167 16.9552 2.4874 -21.4011 
717 718 27.4275 15.1693 2.5718 -22.7056 
718 719 27.4222 12.3372 2.6027 -24.3516 
719 720 27.4141 8.4173 2.4727 -25.9724 
720 721 27.413 3.4273 2.0641 -27.1195 
721 722 27.4095 -2.4296 1.2978 -27.2707 
722 723 27.4043 -8.6882 0.1005 -25.9904 
723 724 27.4106 -14.7437 -1.5449 -23.056 
724 725 27.4034 -19.9369 -3.5318 -18.466 
725 726 27.4139 -23.6962 -5.7194 -12.542 
726 727 27.4221 -25.6126 -7.9281 -5.754 
727 728 27.4078 -25.5002 -9.95292 1.367 
728 729 27.4054 -23.4146 -11.5996 8.262 
729 730 27.4254 -19.5442 -12.6669 14.482 
730 731 27.412 -14.1196 -12.9649 19.595 
731 732 27.4061 -7.556 -12.3382 23.276 
732 733 27.4046 -0.326 -10.6679 25.2409 
733 734 27.4124 6.986 -7.9278 25.294 
734 735 27.3996 13.7356 -4.1537 23.3413 
735 736 27.4037 19.2335 0.4064 19.5159 
736 737 27.402 22.8348 5.4154 14.1462 
737 738 27.4047 24.1154 10.4191 7.80431 
738 739 27.3962 22.9192 14.9613 1.1907 
739 740 27.4014 19.4281 18.6785 -4.9501 
740 741 27.3996 14.0602 21.3118 -9.94273 
741 742 27.4127 7.3291 22.8009 -13.3364 
742 743 27.4091 -0.2136 23.0801 -14.7825 
743 744 27.41 -8.0023 22.1257 -14.0615 
744 745 27.4137 -15.417 19.8134 -11.0116 
745 746 27.398 -21.5672 15.9379 -5.6115 
746 747 27.3889 -25.2718 10.409 1.7725 
747 748 27.3876 -25.2004 3.544 10.1222 
748 749 27.3816 -20.5673 -3.756 17.6814 
749 750 27.3776 -11.981 -9.995 22.4964 
750 751 27.3828 -1.5666 -13.9183 23.5296 
751 752 27.3996 8.1495 -15.2311 21.2682 
752 753 27.4221 15.5338 -14.5803 17.2652 
753 754 27.4209 20.2429 -13.035 13.1233 
754 755 27.4229 22.7929 -11.5378 9.9689 
755 756 27.4443 23.8813 -10.6825 8.292 
ITEM: TIMESTEP
2
ITEM: NUMBER OF ENTRIES
738
ITEM: BOX BOUNDS pp pp pp
-3.6000000000000000e+04 3.6000000000000000e+04
-1.2000000000000000e+04 3.6000000000000000e+04
-3.6000000000000000e+04 3.6000000000000000e+04
ITEM: ENTRIES c_batomIDs[1] c_batomIDs[2] c_distCalc[1] c_distCalc[2] c_distCalc[3] c_distCalc[4]
1 2 -nan -nan -nan -nan 
2 3 -nan -nan -nan -nan 
3 4 -nan -nan -nan -nan 
4 5 -nan -nan -nan -nan 
5 6 -nan -nan -nan -nan 
6 7 -nan -nan -nan -nan 
7 8 -nan -nan -nan -nan 
8 9 -nan -nan -nan -nan 
9 10 -nan -nan -nan -nan 
10 11 -nan -nan -nan -nan 
11 12 -nan -nan -nan -nan 
12 13 -nan -nan -nan -nan 
13 14 -nan -nan -nan -nan 
14 15 -nan -nan -nan -nan 
15 16 -nan -nan -nan -nan 
16 17 -nan -nan -nan -nan 
17 18 -nan -nan -nan -nan 
18 19 -nan -nan -nan -nan 
19 20 -nan -nan -nan -nan 
20 21 -nan -nan -nan -nan 
21 22 -nan -nan -nan -nan 
22 23 -nan -nan -nan -nan 
23 24 -nan -nan -nan -nan 
24 25 -nan -nan -nan -nan 
25 26 -nan -nan -nan -nan 
26 27 -nan -nan -nan -nan 
27 28 -nan -nan -nan -nan 
28 29 -nan -nan -nan -nan 
29 30 -nan -nan -nan -nan 
30 31 -nan -nan -nan -nan 
31 32 -nan -nan -nan -nan 
32 33 -nan -nan -nan -nan 
33 34 -nan -nan -nan -nan 
34 35 -nan -nan -nan -nan 
35 36 -nan -nan -nan -nan 
36 37 -nan -nan -nan -nan 
37 38 -nan -nan -nan -nan 
38 39 -nan -nan -nan -nan 
39 40 -nan -nan -nan -nan 
40 41 -nan -nan -nan -nan 
41 42 -nan -nan -nan -nan 
43 44 -nan -nan -nan -nan 
44 45 -nan -nan -nan -nan 
45 46 -nan -nan -nan -nan 
46 47 -nan -nan -nan -nan 
47 48 -nan -nan -nan -nan 
48 49 -nan -nan -nan -nan 
49 50 -nan -nan -nan -nan 
50 51 -nan -nan -nan -nan 
51 52 -nan -nan -nan -nan 
52 53 -nan -nan -nan -nan 
53 54 -nan -nan -nan -nan 
54 55 -nan -nan -nan -nan 
55 56 -nan -nan -nan -nan 
56 57 -nan -nan -nan -nan 
57 58 -nan -nan -nan -nan 
58 59 -nan -nan -nan -nan 
59 60 -nan -nan -nan -nan 
60 61 -nan -nan -nan -nan 
61 62 -nan -nan -nan -nan 
62 63 -nan -nan -nan -nan 
63 64 -nan -nan -nan -nan 
64 65 -nan -nan -nan -nan 
65 66 -nan -nan -nan -nan 
66 67 -nan -nan -nan -nan 
67 68 -nan -nan -nan -nan 
68 69 -nan -nan -nan -nan 
69 70 -nan -nan -nan -nan 
70 71 -nan -nan -nan -nan 
71 72 -nan -nan -nan -nan 
72 73 -nan -nan -nan -nan 
73 74 -nan -nan -nan -nan 
74 75 -nan -nan -nan -nan 
75 76 -nan -nan -nan -nan 
76 77 -nan -nan -nan -nan 
77 78 -nan -nan -nan -nan 
78 79 -nan -nan -nan -nan 
79 80 -nan -nan -nan -nan 
80 81 -nan -nan -nan -nan 
81 82 -nan -nan -nan -nan 
82 83 -nan -nan -nan -nan 
83 84 -nan -nan -nan -nan 
85 86 -nan -nan -nan -nan 
86 87 -nan -nan -nan -nan 
87 88 -nan -nan -nan -nan 
88 89 -nan -nan -nan -nan 
89 90 -nan -nan -nan -nan 
90 91 -nan -nan -nan -nan 
91 92 -nan -nan -nan -nan 
92 93 -nan -nan -nan -nan 
93 94 -nan -nan -nan -nan 
94 95 -nan -nan -nan -nan 
95 96 -nan -nan -nan -nan 
96 97 -nan -nan -nan -nan 
97 98 -nan -nan -nan -nan 
98 99 -nan -nan -nan -nan 
99 100 -nan -nan -nan -nan 
100 101 -nan -nan -nan -nan 
101 102 -nan -nan -nan -nan 
102 103 -nan -nan -nan -nan 
103 104 -nan -nan -nan -nan 
104 105 -nan -nan -nan -nan 
105 106 -nan -nan -nan -nan 
106 107 -nan -nan -nan -nan 
107 108 -nan -nan -nan -nan 
108 109 -nan -nan -nan -nan 
109 110 -nan -nan -nan -nan 
110 111 -nan -nan -nan -nan 
111 112 -nan -nan -nan -nan 
112 113 -nan -nan -nan -nan 
113 114 -nan -nan -nan -nan 
114 115 -nan -nan -nan -nan 
115 116 -nan -nan -nan -nan 
116 117 -nan -nan -nan -nan 
117 118 -nan -nan -nan -nan 
118 119 -nan -nan -nan -nan 
119 120 -nan -nan -nan -nan 
120 121 -nan -nan -nan -nan 
121 122 -nan -nan -nan -nan 
122 123 -nan -nan -nan -nan 
123 124 -nan -nan -nan -nan 
124 125 -nan -nan -nan -nan 
125 126 -nan -nan -nan -nan 
127 128 -nan -nan -nan -nan 
128 129 -nan -nan -nan -nan 
129 130 -nan -nan -nan -nan 
130 131 -nan -nan -nan -nan 
131 132 -nan -nan -nan -nan 
132 133 -nan -nan -nan -nan 
133 134 -nan -nan -nan -nan 
134 135 -nan -nan -nan -nan 
135 136 -nan -nan -nan -nan 
136 137 -nan -nan -nan -nan 
137 138 -nan -nan -nan -nan 
138 139 -nan -nan -nan -nan 
139 140 -nan -nan -nan -nan 
140 141 -nan -nan -nan -nan 
141 142 -nan -nan -nan -nan 
142 143 -nan -nan -nan -nan 
143 144 -nan -nan -nan -nan 
144 145 -nan -nan -nan -nan 
145 146 -nan -nan -nan -nan 
146 147 -nan -nan -nan -nan 
147 148 -nan -nan -nan -nan 
148 149 -nan -nan -nan -nan 
149 150 -nan -nan -nan -nan 
150 151 -nan -nan -nan -nan 
151 152 -nan -nan -nan -nan 
152 153 -nan -nan -nan -nan 
153 154 -nan -nan -nan -nan 
154 155 -nan -nan -nan -nan 
155 156 -nan -nan -nan -nan 
156 157 -nan -nan -nan -nan 
157 158 -nan -nan -nan -nan 
158 159 -nan -nan -nan -nan 
159 160 -nan -nan -nan -nan 
160 161 -nan -nan -nan -nan 
161 162 -nan -nan -nan -nan 
162 163 -nan -nan -nan -nan 
163 164 -nan -nan -nan -nan 
164 165 -nan -nan -nan -nan 
165 166 -nan -nan -nan -nan 
166 167 -nan -nan -nan -nan 
167 168 -nan -nan -nan -nan 
169 170 -nan -nan -nan -nan 
170 171 -nan -nan -nan -nan 
171 172 -nan -nan -nan -nan 
172 173 -nan -nan -nan -nan 
173 174 -nan -nan -nan -nan 
174 175 -nan -nan -nan -nan 
175 176 -nan -nan -nan -nan 
176 177 -nan -nan -nan -nan 
177 178 -nan -nan -nan -nan 
178 179 -nan -nan -nan -nan 
179 180 -nan -nan -nan -nan 
180 181 -nan -nan -nan -nan 
181 182 -nan -nan -nan -nan 
182 183 -nan -nan -nan -nan 
183 184 -nan -nan -nan -nan 
184 185 -nan -nan -nan -nan 
185 186 -nan -nan -nan -nan 
186 187 -nan -nan -nan -nan 
187 188 -nan -nan -nan -nan 
188 189 -nan -nan -nan -nan 
189 190 -nan -nan -nan -nan 
190 191 -nan -nan -nan -nan 
191 192 -nan -nan -nan -nan 
192 193 -nan -nan -nan -nan 
193 194 -nan -nan -nan -nan 
194 195 -nan -nan -nan -nan 
195 196 -nan -nan -nan -nan 
196 197 -nan -nan -nan -nan 
197 198 -nan -nan -nan -nan 
198 199 -nan -nan -nan -nan 
199 200 -nan -nan -nan -nan 
200 201 -nan -nan -nan -nan 
201 202 -nan -nan -nan -nan 
202 203 -nan -nan -nan -nan 
203 204 -nan -nan -nan -nan 
204 205 -nan -nan -nan -nan 
205 206 -nan -nan -nan -nan 
206 207 -nan -nan -nan -nan 
207 208 -nan -nan -nan -nan 
208 209 -nan -nan -nan -nan 
209 210 -nan -nan -nan -nan 
211 212 -nan -nan -nan -nan 
212 213 -nan -nan -nan -nan 
213 214 -nan -nan -nan -nan 
214 215 -nan -nan -nan -nan 
215 216 -nan -nan -nan -nan 
216 217 -nan -nan -nan -nan 
217 218 -nan -nan -nan -nan 
218 219 -nan -nan -nan -nan 
219 220 -nan -nan -nan -nan 
220 221 -nan -nan -nan -nan 
221 222 -nan -nan -nan -nan 
222 223 -nan -nan -nan -nan 
223 224 -nan -nan -nan -nan 
224 225 -nan -nan -nan -nan 
225 226 -nan -nan -nan -nan 
226 227 -nan -nan -nan -nan 
227 228 -nan -nan -nan -nan 
228 229 -nan -nan -nan -nan 
229 230 -nan -nan -nan -nan 
230 231 -nan -nan -nan -nan 
231 232 -nan -nan -nan -nan 
232 233 -nan -nan -nan -nan 
233 234 -nan -nan -nan -nan 
234 235 -nan -nan -nan -nan 
235 236 -nan -nan -nan -nan 
236 237 -nan -nan -nan -nan 
237 238 -nan -nan -nan -nan 
238 239 -nan -nan -nan -nan 
239 240 -nan -nan -nan -nan 
240 241 -nan -nan -nan -nan 
241 242 -nan -nan -nan -nan 
242 243 -nan -nan -nan -nan 
243 244 -nan -nan -nan -nan 
244 245 -nan -nan -nan -nan 
245 246 -nan -nan -nan -nan 
246 247 -nan -nan -nan -nan 
247 248 -nan -nan -nan -nan 
248 249 -nan -nan -nan -nan 
249 250 -nan -nan -nan -nan 
250 251 -nan -nan -nan -nan 
251 252 -nan -nan -nan -nan 
253 254 -nan -nan -nan -nan 
254 255 -nan -nan -nan -nan 
255 256 -nan -nan -nan -nan 
256 257 -nan -nan -nan -nan 
257 258 -nan -nan -nan -nan 
258 259 -nan -nan -nan -nan 
259 260 -nan -nan -nan -nan 
260 261 -nan -nan -nan -nan 
261 262 -nan -nan -nan -nan 
262 263 -nan -nan -nan -nan 
263 264 -nan -nan -nan -nan 
264 265 -nan -nan -nan -nan 
265 266 -nan -nan -nan -nan 
266 267 -nan -nan -nan -nan 
267 268 -nan -nan -nan -nan 
268 269 -nan -nan -nan -nan 
269 270 -nan -nan -nan -nan 
270 271 -nan -nan -nan -nan 
271 272 -nan -nan -nan -nan 
272 273 -nan -nan -nan -nan 
273 274 -nan -nan -nan -nan 
274 275 -nan -nan -nan -nan 
275 276 -nan -nan -nan -nan 
276 277 -nan -nan -nan -nan 
277 278 -nan -nan -nan -nan 
278 279 -nan -nan -nan -nan 
279 280 -nan -nan -nan -nan 
280 281 -nan -nan -nan -nan 
281 282 -nan -nan -nan -nan 
282 283 -nan -nan -nan -nan 
283 284 -nan -nan -nan -nan 
284 285 -nan -nan -nan -nan 
285 286 -nan -nan -nan -nan 
286 287 -nan -nan -nan -nan 
287 288 -nan -nan -nan -nan 
288 289 -nan -nan -nan -nan 
289 290 -nan -nan -nan -nan 
290 291 -nan -nan -nan -nan 
291 292 -nan -nan -nan -nan 
292 293 -nan -nan -nan -nan 
293 294 -nan -nan -nan -nan 
295 296 -nan -nan -nan -nan 
296 297 -nan -nan -nan -nan 
297 298 -nan -nan -nan -nan 
298 299 -nan -nan -nan -nan 
299 300 -nan -nan -nan -nan 
300 301 -nan -nan -nan -nan 
301 302 -nan -nan -nan -nan 
302 303 -nan -nan -nan -nan 
303 304 -nan -nan -nan -nan 
304 305 -nan -nan -nan -nan 
305 306 -nan -nan -nan -nan 
306 307 -nan -nan -nan -nan 
307 308 -nan -nan -nan -nan 
308 309 -nan -nan -nan -nan 
309 310 -nan -nan -nan -nan 
310 311 -nan -nan -nan -nan 
311 312 -nan -nan -nan -nan 
312 313 -nan -nan -nan -nan 
313 314 -nan -nan -nan -nan 
314 315 -nan -nan -nan -nan 
315 316 -nan -nan -nan -nan 
316 317 -nan -nan -nan -nan 
317 318 -nan -nan -nan -nan 
318 319 -nan -nan -nan -nan 
319 320 -nan -nan -nan -nan 
320 321 -nan -nan -nan -nan 
321 322 -nan -nan -nan -nan 
322 323 -nan -nan -nan -nan 
323 324 -nan -nan -nan -nan 
324 325 -nan -nan -nan -nan 
325 326 -nan -nan -nan -nan 
326 327 -nan -nan -nan -nan 
327 328 -nan -nan -nan -nan 
328 329 -nan -nan -nan -nan 
329 330 -nan -nan -nan -nan 
330 331 -nan -nan -nan -nan 
331 332 -nan -nan -nan -nan 
332 333 -nan -nan -nan -nan 
333 334 -nan -nan -nan -nan 
334 335 -nan -nan -nan -nan 
335 336 -nan -nan -nan -nan 
337 338 -nan -nan -nan -nan 
338 339 -nan -nan -nan -nan 
339 340 -nan -nan -nan -nan 
340 341 -nan -nan -nan -nan 
341 342 -nan -nan -nan -nan 
342 343 -nan -nan -nan -nan 
343 344 -nan -nan -nan -nan 
344 345 -nan -nan -nan -nan 
345 346 -nan -nan -nan -nan 
346 347 -nan -nan -nan -nan 
347 348 -nan -nan -nan -nan 
348 349 -nan -nan -nan -nan 
349 350 -nan -nan -nan -nan 
350 351 -nan -nan -nan -nan 
351 352 -nan -nan -nan -nan 
352 353 -nan -nan -nan -nan 
353 354 -nan -nan -nan -nan 
354 355 -nan -nan -nan -nan 
355 356 -nan -nan -nan -nan 
356 357 -nan -nan -nan -nan 
357 358 -nan -nan -nan -nan 
358 359 -nan -nan -nan -nan 
359 360 -nan -nan -nan -nan 
360 361 -nan -nan -nan -nan 
361 362 -nan -nan -nan -nan 
362 363 -nan -nan -nan -nan 
363 364 -nan -nan -nan -nan 
364 365 -nan -nan -nan -nan 
365 366 -nan -nan -nan -nan 
366 367 -nan -nan -nan -nan 
367 368 -nan -nan -nan -nan 
368 369 -nan -nan -nan -nan 
369 370 -nan -nan -nan -nan 
370 371 -nan -nan -nan -nan 
371 372 -nan -nan -nan -nan 
372 373 -nan -nan -nan -nan 
373 374 -nan -nan -nan -nan 
374 375 -nan -nan -nan -nan 
375 376 -nan -nan -nan -nan 
376 377 -nan -nan -nan -nan 
377 378 -nan -nan -nan -nan 
379 380 -nan -nan -nan -nan 
380 381 -nan -nan -nan -nan 
381 382 -nan -nan -nan -nan 
382 383 -nan -nan -nan -nan 
383 384 -nan -nan -nan -nan 
384 385 -nan -nan -nan -nan 
385 386 -nan -nan -nan -nan 
386 387 -nan -nan -nan -nan 
387 388 -nan -nan -nan -nan 
388 389 -nan -nan -nan -nan 
389 390 -nan -nan -nan -nan 
390 391 -nan -nan -nan -nan 
391 392 -nan -nan -nan -nan 
392 393 -nan -nan -nan -nan 
393 394 -nan -nan -nan -nan 
394 395 -nan -nan -nan -nan 
395 396 -nan -nan -nan -nan 
396 397 -nan -nan -nan -nan 
397 398 -nan -nan -nan -nan 
398 399 -nan -nan -nan -nan 
399 400 -nan -nan -nan -nan 
400 401 -nan -nan -nan -nan 
401 402 -nan -nan -nan -nan 
402 403 -nan -nan -nan -nan 
403 404 -nan -nan -nan -nan 
404 405 -nan -nan -nan -nan 
405 406 -nan -nan -nan -nan 
406 407 -nan -nan -nan -nan 
407 408 -nan -nan -nan -nan 
408 409 -nan -nan -nan -nan 
409 410 -nan -nan -nan -nan 
410 411 -nan -nan -nan -nan 
411 412 -nan -nan -nan -nan 
412 413 -nan -nan -nan -nan 
413 414 -nan -nan -nan -nan 
414 415 -nan -nan -nan -nan 
415 416 -nan -nan -nan -nan 
416 417 -nan -nan -nan -nan 
417 418 -nan -nan -nan -nan 
418 419 -nan -nan -nan -nan 
419 420 -nan -nan -nan -nan 
421 422 -nan -nan -nan -nan 
422 423 -nan -nan -nan -nan 
423 424 -nan -nan -nan -nan 
424 425 -nan -nan -nan -nan 
425 426 -nan -nan -nan -nan 
426 427 -nan -nan -nan -nan 
427 428 -nan -nan -nan -nan 
428 429 -nan -nan -nan -nan 
429 430 -nan -nan -nan -nan 
430 431 -nan -nan -nan -nan 
431 432 -nan -nan -nan -nan 
432 433 -nan -nan -nan -nan 
433 434 -nan -nan -nan -nan 
434 435 -nan -nan -nan -nan 
435 436 -nan -nan -nan -nan 
436 437 -nan -nan -nan -nan 
437 438 -nan -nan -nan -nan 
438 439 -nan -nan -nan -nan 
439 440 -nan -nan -nan -nan 
440 441 -nan -nan -nan -nan 
441 442 -nan -nan -nan -nan 
442 443 -nan -nan -nan -nan 
443 444 -nan -nan -nan -nan 
444 445 -nan -nan -nan -nan 
445 446 -nan -nan -nan -nan 
446 447 -nan -nan -nan -nan 
447 448 -nan -nan -nan -nan 
448 449 -nan -nan -nan -nan 
449 450 -nan -nan -nan -nan 
450 451 -nan -nan -nan -nan 
451 452 -nan -nan -nan -nan 
452 453 -nan -nan -nan -nan 
453 454 -nan -nan -nan -nan 
454 455 -nan -nan -nan -nan 
455 456 -nan -nan -nan -nan 
456 457 -nan -nan -nan -nan 
457 458 -nan -nan -nan -nan 
458 459 -nan -nan -nan -nan 
459 460 -nan -nan -nan -nan 
460 461 -nan -nan -nan -nan 
461 462 -nan -nan -nan -nan 
463 464 -nan -nan -nan -nan 
464 465 -nan -nan -nan -nan 
465 466 -nan -nan -nan -nan 
466 467 -nan -nan -nan -nan 
467 468 -nan -nan -nan -nan 
468 469 -nan -nan -nan -nan 
469 470 -nan -nan -nan -nan 
470 471 -nan -nan -nan -nan 
471 472 -nan -nan -nan -nan 
472 473 -nan -nan -nan -nan 
473 474 -nan -nan -nan -nan 
474 475 -nan -nan -nan -nan 
475 476 -nan -nan -nan -nan 
476 477 -nan -nan -nan -nan 
477 478 -nan -nan -nan -nan 
478 479 -nan -nan -nan -nan 
479 480 -nan -nan -nan -nan 
480 481 -nan -nan -nan -nan 
481 482 -nan -nan -nan -nan 
482 483 -nan -nan -nan -nan 
483 484 -nan -nan -nan -nan 
484 485 -nan -nan -nan -nan 
485 486 -nan -nan -nan -nan 
486 487 -nan -nan -nan -nan 
487 488 -nan -nan -nan -nan 
488 489 -nan -nan -nan -nan 
489 490 -nan -nan -nan -nan 
490 491 -nan -nan -nan -nan 
491 492 -nan -nan -nan -nan 
492 493 -nan -nan -nan -nan 
493 494 -nan -nan -nan -nan 
494 495 -nan -nan -nan -nan 
495 496 -nan -nan -nan -nan 
496 497 -nan -nan -nan -nan 
497 498 -nan -nan -nan -nan 
498 499 -nan -nan -nan -nan 
499 500 -nan -nan -nan -nan 
500 501 -nan -nan -nan -nan 
501 502 -nan -nan -nan -nan 
502 503 -nan -nan -nan -nan 
503 504 -nan -nan -nan -nan 
505 506 -nan -nan -nan -nan 
506 507 -nan -nan -nan -nan 
507 508 -nan -nan -nan -nan 
508 509 -nan -nan -nan -nan 
509 510 -nan -nan -nan -nan 
510 511 -nan -nan -nan -nan 
511 512 -nan -nan -nan -nan 
512 513 -nan -nan -nan -nan 
513 514 -nan -nan -nan -nan 
514 515 -nan -nan -nan -nan 
515 516 -nan -nan -nan -nan 
516 517 -nan -nan -nan -nan 
517 518 -nan -nan -nan -nan 
518 519 -nan -nan -nan -nan 
519 520 -nan -nan -nan -nan 
520 521 -nan -nan -nan -nan 
521 522 -nan -nan -nan -nan 
522 523 -nan -nan -nan -nan 
523 524 -nan -nan -nan -nan 
524 525 -nan -nan -nan -nan 
525 526 -nan -nan -nan -nan 
526 527 -nan -nan -nan -nan 
527 528 -nan -nan -nan -nan 
528 529 -nan -nan -nan -nan 
529 530 -nan -nan -nan -nan 
530 531 -nan -nan -nan -nan 
531 532 -nan -nan -nan -nan 
532 533 -nan -nan -nan -nan 
533 534 -nan -nan -nan -nan 
534 535 -nan -nan -nan -nan 
535 536 -nan -nan -nan -nan 
536 537 -nan -nan -nan -nan 
537 538 -nan -nan -nan -nan 
538 539 -nan -nan -nan -nan 
539 540 -nan -nan -nan -nan 
540 541 -nan -nan -nan -nan 
541 542 -nan -nan -nan -nan 
542 543 -nan -nan -nan -nan 
543 544 -nan -nan -nan -nan 
544 545 -nan -nan -nan -nan 
545 546 -nan -nan -nan -nan 
547 548 -nan -nan -nan -nan 
548 549 -nan -nan -nan -nan 
549 550 -nan -nan -nan -nan 
550 551 -nan -nan -nan -nan 
551 552 -nan -nan -nan -nan 
552 553 -nan -nan -nan -nan 
553 554 -nan -nan -nan -nan 
554 555 -nan -nan -nan -nan 
555 556 -nan -nan -nan -nan 
556 557 -nan -nan -nan -nan 
557 558 -nan -nan -nan -nan 
558 559 -nan -nan -nan -nan 
559 560 -nan -nan -nan -nan 
560 561 -nan -nan -nan -nan 
561 562 -nan -nan -nan -nan 
562 563 -nan -nan -nan -nan 
563 564 -nan -nan -nan -nan 
564 565 -nan -nan -nan -nan 
565 566 -nan -nan -nan -nan 
566 567 -nan -nan -nan -nan 
567 568 -nan -nan -nan -nan 
568 569 -nan -nan -nan -nan 
569 570 -nan -nan -nan -nan 
570 571 -nan -nan -nan -nan 
571 572 -nan -nan -nan -nan 
572 573 -nan -nan -nan -nan 
573 574 -nan -nan -nan -nan 
574 575 -nan -nan -nan -nan 
575 576 -nan -nan -nan -nan 
576 577 -nan -nan -nan -nan 
577 578 -nan -nan -nan -nan 
578 579 -nan -nan -nan -nan 
579 580 -nan -nan -nan -nan 
580 581 -nan -nan -nan -nan 
581 582 -nan -nan -nan -nan 
582 583 -nan -nan -nan -nan 
583 584 -nan -nan -nan -nan 
584 585 -nan -nan -nan -nan 
585 586 -nan -nan -nan -nan 
586 587 -nan -nan -nan -nan 
587 588 -nan -nan -nan -nan 
589 590 -nan -nan -nan -nan 
590 591 -nan -nan -nan -nan 
591 592 -nan -nan -nan -nan 
592 593 -nan -nan -nan -nan 
593 594 -nan -nan -nan -nan 
594 595 -nan -nan -nan -nan 
595 596 -nan -nan -nan -nan 
596 597 -nan -nan -nan -nan 
597 598 -nan -nan -nan -nan 
598 599 -nan -nan -nan -nan 
599 600 -nan -nan -nan -nan 
600 601 -nan -nan -nan -nan 
601 602 -nan -nan -nan -nan 
602 603 -nan -nan -nan -nan 
603 604 -nan -nan -nan -nan 
604 605 -nan -nan -nan -nan 
605 606 -nan -nan -nan -nan 
606 607 -nan -nan -nan -nan 
607 608 -nan -nan -nan -nan 
608 609 -nan -nan -nan -nan 
609 610 -nan -nan -nan -nan 
610 611 -nan -nan -nan -nan 
611 612 -nan -nan -nan -nan 
612 613 -nan -nan -nan -nan 
613 614 -nan -nan -nan -nan 
614 615 -nan -nan -nan -nan 
615 616 -nan -nan -nan -nan 
616 617 -nan -nan -nan -nan 
617 618 -nan -nan -nan -nan 
618 619 -nan -nan -nan -nan 
619 620 -nan -nan -nan -nan 
620 621 -nan -nan -nan -nan 
621 622 -nan -nan -nan -nan 
622 623 -nan -nan -nan -nan 
623 624 -nan -nan -nan -nan 
624 625 -nan -nan -nan -nan 
625 626 -nan -nan -nan -nan 
626 627 -nan -nan -nan -nan 
627 628 -nan -nan -nan -nan 
628 629 -nan -nan -nan -nan 
629 630 -nan -nan -nan -nan 
631 632 -nan -nan -nan -nan 
632 633 -nan -nan -nan -nan 
633 634 -nan -nan -nan -nan 
634 635 -nan -nan -nan -nan 
635 636 -nan -nan -nan -nan 
636 637 -nan -nan -nan -nan 
637 638 -nan -nan -nan -nan 
638 639 -nan -nan -nan -nan 
639 640 -nan -nan -nan -nan 
640 641 -nan -nan -nan -nan 
641 642 -nan -nan -nan -nan 
642 643 -nan -nan -nan -nan 
643 644 -nan -nan -nan -nan 
644 645 -nan -nan -nan -nan 
645 646 -nan -nan -nan -nan 
646 647 -nan -nan -nan -nan 
647 648 -nan -nan -nan -nan 
648 649 -nan -nan -nan -nan 
649 650 -nan -nan -nan -nan 
650 651 -nan -nan -nan -nan 
651 652 -nan -nan -nan -nan 
652 653 -nan -nan -nan -nan 
653 654 -nan -nan -nan -nan 
654 655 -nan -nan -nan -nan 
655 656 -nan -nan -nan -nan 
656 657 -nan -nan -nan -nan 
657 658 -nan -nan -nan -nan 
658 659 -nan -nan -nan -nan 
659 660 -nan -nan -nan -nan 
660 661 -nan -nan -nan -nan 
661 662 -nan -nan -nan -nan 
662 663 -nan -nan -nan -nan 
663 664 -nan -nan -nan -nan 
664 665 -nan -nan -nan -nan 
665 666 -nan -nan -nan -nan 
666 667 -nan -nan -nan -nan 
667 668 -nan -nan -nan -nan 
668 669 -nan -nan -nan -nan 
669 670 -nan -nan -nan -nan 
670 671 -nan -nan -nan -nan 
671 672 -nan -nan -nan -nan 
673 674 -nan -nan -nan -nan 
674 675 -nan -nan -nan -nan 
675 676 -nan -nan -nan -nan 
676 677 -nan -nan -nan -nan 
677 678 -nan -nan -nan -nan 
678 679 -nan -nan -nan -nan 
679 680 -nan -nan -nan -nan 
680 681 -nan -nan -nan -nan 
681 682 -nan -nan -nan -nan 
682 683 -nan -nan -nan -nan 
683 684 -nan -nan -nan -nan 
684 685 -nan -nan -nan -nan 
685 686 -nan -nan -nan -nan 
686 687 -nan -nan -nan -nan 
687 688 -nan -nan -nan -nan 
688 689 -nan -nan -nan -nan 
689 690 -nan -nan -nan -nan 
690 691 -nan -nan -nan -nan 
691 692 -nan -nan -nan -nan 
692 693 -nan -nan -nan -nan 
693 694 -nan -nan -nan -nan 
694 695 -nan -nan -nan -nan 
695 696 -nan -nan -nan -nan 
696 697 -nan -nan -nan -nan 
697 698 -nan -nan -nan -nan 
698 699 -nan -nan -nan -nan 
699 700 -nan -nan -nan -nan 
700 701 -nan -nan -nan -nan 
701 702 -nan -nan -nan -nan 
702 703 -nan -nan -nan -nan 
703 704 -nan -nan -nan -nan 
704 705 -nan -nan -nan -nan 
705 706 -nan -nan -nan -nan 
706 707 -nan -nan -nan -nan 
707 708 -nan -nan -nan -nan 
708 709 -nan -nan -nan -nan 
709 710 -nan -nan -nan -nan 
710 711 -nan -nan -nan -nan 
711 712 -nan -nan -nan -nan 
712 713 -nan -nan -nan -nan 
713 714 -nan -nan -nan -nan 
715 716 -nan -nan -nan -nan 
716 717 -nan -nan -nan -nan 
717 718 -nan -nan -nan -nan 
718 719 -nan -nan -nan -nan 
719 720 -nan -nan -nan -nan 
720 721 -nan -nan -nan -nan 
721 722 -nan -nan -nan -nan 
722 723 -nan -nan -nan -nan 
723 724 -nan -nan -nan -nan 
724 725 -nan -nan -nan -nan 
725 726 -nan -nan -nan -nan 
726 727 -nan -nan -nan -nan 
727 728 -nan -nan -nan -nan 
728 729 -nan -nan -nan -nan 
729 730 -nan -nan -nan -nan 
730 731 -nan -nan -nan -nan 
731 732 -nan -nan -nan -nan 
732 733 -nan -nan -nan -nan 
733 734 -nan -nan -nan -nan 
734 735 -nan -nan -nan -nan 
735 736 -nan -nan -nan -nan 
736 737 -nan -nan -nan -nan 
737 738 -nan -nan -nan -nan 
738 739 -nan -nan -nan -nan 
739 740 -nan -nan -nan -nan 
740 741 -nan -nan -nan -nan 
741 742 -nan -nan -nan -nan 
742 743 -nan -nan -nan -nan 
743 744 -nan -nan -nan -nan 
744 745 -nan -nan -nan -nan 
745 746 -nan -nan -nan -nan 
746 747 -nan -nan -nan -nan 
747 748 -nan -nan -nan -nan 
748 749 -nan -nan -nan -nan 
749 750 -nan -nan -nan -nan 
750 751 -nan -nan -nan -nan 
751 752 -nan -nan -nan -nan 
752 753 -nan -nan -nan -nan 
753 754 -nan -nan -nan -nan 
754 755 -nan -nan -nan -nan 
755 756 -nan -nan -nan -nan 
