print "The current dispRatio value is: ${dispRatio}"
The current dispRatio value is: 1.00

variable totLength equal 1121.3409 # Sum of all bond equilibrium lengths
variable commDist equal "v_totLength*v_dispRatio"
variable dispDist equal "v_commDist/2"
# Displacement distance is divided by two because I want to displace both the bow and stern atoms of each chain.

variable seed equal 1
units real
boundary p p p

atom_style molecular

lattice sc 12000
Lattice spacing in x,y,z = 12000 12000 12000

region main block -1.5 2.5 -0.5 1.5 -1.5 2.5 units lattice
region insertionVolume block -1 2 0 1 -1 2 units lattice

# region main block -25000 25000 -25000 25000 -25000 25000
create_box 42 main bond/types 41 angle/types 40 extra/bond/per/atom 2 extra/angle/per/atom 3 extra/special/per/atom 6
Created orthogonal box = (-18000 -6000 -18000) to (30000 18000 30000)
  4 by 2 by 4 MPI processor grid
# region insertionVolume block -15000 15000 -15000 15000 -15000 15000

# molecule productionIdealized productionIdealized.txt
#
# I am going to use a pre-minimized model for each dispRatio
#
molecule productionIdealized rest_prod_mds/restrained_production_${dispRatio}.txt
molecule productionIdealized rest_prod_mds/restrained_production_1.00.txt
Read molecule template productionIdealized:
# Minimized Production Model for dispRatio of 1.00
  1 molecules
  0 fragments
  42 atoms with max type 42
  41 bonds with max type 41
  40 angles with max type 40
  0 dihedrals with max type 0
  0 impropers with max type 0
bond_style harmonic
angle_style harmonic
# Uncomment below if using dispRatio 0.00 OR if NOT using INTEL package
#
# pair_style none

# Uncomment below if using INTEL package AND NOT using dispRatio 0.00
#
pair_style lj/cut 0
pair_coeff * * 0 0

# create_atoms spawns in molecules on each lattice point of region insertionVolume
# such that the center of geometry of a given molecule is located at the
# lattice point assigned to said molecule
# This is not exactly what we desire for most optimal performance, but there
# is a way to get around that
create_atoms 0 region insertionVolume mol productionIdealized ${seed} rotate 0 0 0 1
create_atoms 0 region insertionVolume mol productionIdealized 1 rotate 0 0 0 1
Created 1344 atoms
  using lattice units in orthogonal box = (-18000 -6000 -18000) to (30000 18000 30000)
  create_atoms CPU = 0.005 seconds
read_data IdealizedCoeffs.data add merge
Reading data file ...
  orthogonal box = (-18000 -6000 -18000) to (30000 18000 30000)
  4 by 2 by 4 MPI processor grid
Finding 1-2 1-3 1-4 neighbors ...
  special bond factors lj:    0        0        0       
  special bond factors coul:  0        0        0       
     3 = max # of 1-2 neighbors
     6 = max # of 1-3 neighbors
    18 = max # of 1-4 neighbors
    13 = max # of special neighbors
  special bonds CPU = 0.003 seconds
  read_data CPU = 0.009 seconds

group firstAtoms type 1
32 atoms in group firstAtoms
group lastAtoms type 42
32 atoms in group lastAtoms

group endpoints union firstAtoms lastAtoms
64 atoms in group endpoints
group internals subtract all endpoints
1280 atoms in group internals

group molOne molecule 1
42 atoms in group molOne
group firstOne intersect firstAtoms molOne
1 atoms in group firstOne
group lastOne intersect lastAtoms molOne
1 atoms in group lastOne

# Because the models are pre-minimized, the endpoints are pre-displaced
# We are going to bring the endpoints back together temporarily
# to prepare each molecule for recentering
 displace_atoms firstAtoms move 0 -${dispDist} 0  units box
 displace_atoms firstAtoms move 0 -560.67045 0  units box
Displacing atoms ...
 displace_atoms lastAtoms move  0 ${dispDist} 0  units box
 displace_atoms lastAtoms move  0 560.67045 0  units box
Displacing atoms ...


 variable napmol equal $(count(molOne))
 variable napmol equal 42

 compute xsumOne molOne reduce sum x
 compute ysumOne molOne reduce sum y
 compute zsumOne molOne reduce sum z

 compute xfirstOne firstOne reduce sum x
 compute yfirstOne firstOne reduce sum y
 compute zfirstOne firstOne reduce sum z

 run 0

CITE-CITE-CITE-CITE-CITE-CITE-CITE-CITE-CITE-CITE-CITE-CITE-CITE

Your simulation uses code contributions which should be cited:

- Type Label Framework: https://doi.org/10.1021/acs.jpcb.3c08419

@Article{Gissinger24,
 author = {Jacob R. Gissinger, Ilia Nikiforov, Yaser Afshar, Brendon Waters, Moon-ki Choi, Daniel S. Karls, Alexander Stukowski, Wonpil Im, Hendrik Heinz, Axel Kohlmeyer, and Ellad B. Tadmor},
 title = {Type Label Framework for Bonded Force Fields in LAMMPS},
 journal = {J. Phys. Chem. B},
 year =    2024,
 volume =  128,
 number =  13,
 pages =   {3282–-3297}
}

CITE-CITE-CITE-CITE-CITE-CITE-CITE-CITE-CITE-CITE-CITE-CITE-CITE

WARNING: No fixes with time integration, atoms won't move (../verlet.cpp:60)
----------------------------------------------------------
Using INTEL Package without Coprocessor.
Compiler: Intel Classic C++ 20.21.7 / Intel(R) C++ g++ 12.2 mode
SIMD compiler directives: Enabled
Precision: mixed
----------------------------------------------------------
Generated 0 of 861 mixed pair_coeff terms from geometric mixing rule
WARNING: Communication cutoff 0 is shorter than a bond length based estimate of 43.024667075. This may lead to errors. (../comm.cpp:730)
Neighbor list info ...
  update: every = 1 steps, delay = 0 steps, check = yes
  max neighbors/atom: 2000, page size: 100000
  master list distance cutoff = 0
  ghost atom cutoff = 0
  binsize = 48000, bins = 1 1 1
  1 neighbor lists, perpetual/occasional/extra = 1 0 0
  (1) pair lj/cut/intel, perpetual
      attributes: half, newton on, intel
      pair build: half/bin/newton/intel
      stencil: half/bin/3d/intel
      bin: intel
WARNING: No pairwise cutoff or binsize set. Atom sorting therefore disabled. (../atom.cpp:2438)
WARNING: Communication cutoff 0 is shorter than a bond length based estimate of 43.024667075. This may lead to errors. (../comm.cpp:730)
WARNING: Communication cutoff is 0.0. No ghost atoms will be generated. Atoms may get lost. (../comm_brick.cpp:210)
Per MPI rank memory allocation (min/avg/max) = 7.863 | 7.863 | 7.863 Mbytes
   Step          Temp          E_pair         E_mol          TotEng         Press     
         0   0             -nan            56468644      -nan           -nan          
Loop time of 3.96322e-06 on 32 procs for 0 steps with 1344 atoms

20.5% CPU use with 32 MPI tasks x 1 OpenMP threads

MPI task timing breakdown:
Section |  min time  |  avg time  |  max time  |%varavg| %total
---------------------------------------------------------------
Pair    | 0          | 0          | 0          |   0.0 |  0.00
Bond    | 0          | 0          | 0          |   0.0 |  0.00
Neigh   | 0          | 0          | 0          |   0.0 |  0.00
Comm    | 0          | 0          | 0          |   0.0 |  0.00
Output  | 0          | 0          | 0          |   0.0 |  0.00
Modify  | 0          | 0          | 0          |   0.0 |  0.00
Other   |            | 3.963e-06  |            |       |100.00

Nlocal:             42 ave          42 max          42 min
Histogram: 32 0 0 0 0 0 0 0 0 0
Nghost:              0 ave           0 max           0 min
Histogram: 32 0 0 0 0 0 0 0 0 0
Neighs:            0.5 ave           1 max           0 min
Histogram: 16 0 0 0 0 0 0 0 0 16

Total # of neighbors = 16
Ave neighs/atom = 0.011904762
Ave special neighs/atom = 5.7142857
Neighbor list builds = 0
Dangerous builds = 0

# For any atom, the difference in the position of that atom with the position
# of the lattice point associated with the molecule it belongs to
# is the same across all molecules
 variable xcenterOne equal $(c_xsumOne/v_napmol)
 variable xcenterOne equal -11999.999999999998181
 variable ycenterOne equal $(c_ysumOne/v_napmol)
 variable ycenterOne equal 8.1204884086868588163e-15
 variable zcenterOne equal $(c_zsumOne/v_napmol)
 variable zcenterOne equal -12000.000000000001819


 variable xoffset equal $(v_xcenterOne - c_xfirstOne)
 variable xoffset equal 2.142951530951904715
 variable yoffset equal $(v_ycenterOne - c_yfirstOne)
 variable yoffset equal 0.038149999999981379362
 variable zoffset equal $(v_zcenterOne - c_zfirstOne)
 variable zoffset equal 22.363607142857290455

# We translate all atoms so that the endpoints, before stretching,
# are located at the center of each lattice point,
# which, given how I set up the regions main and insertionVolume,
# is equal to the center of each of the 32 processor subdomains
 displace_atoms all move v_xoffset v_yoffset v_zoffset units box
Displacing atoms ...

# We now re-displace the endpoints
 displace_atoms firstAtoms move 0  ${dispDist} 0  units box
 displace_atoms firstAtoms move 0  560.67045 0  units box
Displacing atoms ...
 displace_atoms lastAtoms move  0 -${dispDist} 0  units box
 displace_atoms lastAtoms move  0 -560.67045 0  units box
Displacing atoms ...

# pair_style lj/cut 0
# pair_coeff * * 0 0

write_dump all custom out_restrained/initPos.${dispRatio}.txt id x y z modify sort id
write_dump all custom out_restrained/initPos.1.00.txt id x y z modify sort id

# fix restraint all arclengthrestraint productionIdealized 0.25 ${totLength}

reset_timestep 0

# Set up dynamics
velocity internals create 310.0 ${seed} dist gaussian
velocity internals create 310.0 1 dist gaussian

timestep 1
fix integrate internals nvt temp 310.0 310.0 $(25.0*dt)
fix integrate internals nvt temp 310.0 310.0 25

compute internalsTemp internals temp
thermo 1000000
thermo_style custom step c_internalsTemp

# compute force in y direction on one of the endpoints
# as the y direction is the direction of displacement
compute endForce lastAtoms reduce ave fy

run 0
----------------------------------------------------------
Using INTEL Package without Coprocessor.
Compiler: Intel Classic C++ 20.21.7 / Intel(R) C++ g++ 12.2 mode
SIMD compiler directives: Enabled
Precision: mixed
----------------------------------------------------------
Generated 0 of 861 mixed pair_coeff terms from geometric mixing rule
WARNING: Communication cutoff 0 is shorter than a bond length based estimate of 43.024667075. This may lead to errors. (../comm.cpp:730)
WARNING: Communication cutoff is 0.0. No ghost atoms will be generated. Atoms may get lost. (../comm_brick.cpp:210)
Per MPI rank memory allocation (min/avg/max) = 7.864 | 7.864 | 7.864 Mbytes
   Step     c_internalsTemp
         0   310          
Loop time of 3.27141e-06 on 32 procs for 0 steps with 1344 atoms

25.8% CPU use with 32 MPI tasks x 1 OpenMP threads

MPI task timing breakdown:
Section |  min time  |  avg time  |  max time  |%varavg| %total
---------------------------------------------------------------
Pair    | 0          | 0          | 0          |   0.0 |  0.00
Bond    | 0          | 0          | 0          |   0.0 |  0.00
Neigh   | 0          | 0          | 0          |   0.0 |  0.00
Comm    | 0          | 0          | 0          |   0.0 |  0.00
Output  | 0          | 0          | 0          |   0.0 |  0.00
Modify  | 0          | 0          | 0          |   0.0 |  0.00
Other   |            | 3.271e-06  |            |       |100.00

Nlocal:             42 ave          42 max          42 min
Histogram: 32 0 0 0 0 0 0 0 0 0
Nghost:              0 ave           0 max           0 min
Histogram: 32 0 0 0 0 0 0 0 0 0
Neighs:              0 ave           0 max           0 min
Histogram: 32 0 0 0 0 0 0 0 0 0

Total # of neighbors = 0
Ave neighs/atom = 0
Ave special neighs/atom = 5.7142857
Neighbor list builds = 0
Dangerous builds = 0
