print "The current dispRatio value is ${dispRatio}"
The current dispRatio value is 0.05

variable totLength equal 1121.3409
variable commDist equal "v_totLength*v_dispRatio"
variable dispDist equal "v_commDist/2"

variable seed equal 1
units real
boundary p p p

atom_style molecular

lattice sc 2500
Lattice spacing in x,y,z = 2500 2500 2500

region main block -1.5 2.5 -0.5 1.5 -1.5 2.5 units lattice
region insertionVolume block -1 2 0 1 -1 2 units lattice

create_box 42 main bond/types 41 angle/types 40 extra/bond/per/atom 2 extra/angle/per/atom 3 extra/special/per/atom 6
Created orthogonal box = (-3750 -1250 -3750) to (6250 3750 6250)
  4 by 2 by 4 MPI processor grid

molecule productionIdealized productionIdealized.txt
Read molecule template productionIdealized:
# Molecule File for Single Filament of Idealized Chain of Alpha Spectrin
  1 molecules
  0 fragments
  42 atoms with max type 42
  41 bonds with max type 41
  40 angles with max type 40
  0 dihedrals with max type 0
  0 impropers with max type 0
bond_style harmonic
angle_style harmonic

# Uncomment below if using dispRatio 0.00 OR if NOT using INTEL package
#
# pair_style none

# Uncomment below if using INTEL package AND NOT using dispRatio 0.00
#
pair_style lj/cut 0
pair_coeff * * 0 0

create_atoms 0 single 0 0 0 mol productionIdealized ${seed} rotate 0 0 0 1
create_atoms 0 single 0 0 0 mol productionIdealized 1 rotate 0 0 0 1
Created 42 atoms
  using lattice units in orthogonal box = (-3750 -1250 -3750) to (6250 3750 6250)
  create_atoms CPU = 0.001 seconds

read_data IdealizedCoeffs.data add merge
Reading data file ...
  orthogonal box = (-3750 -1250 -3750) to (6250 3750 6250)
  4 by 2 by 4 MPI processor grid
Finding 1-2 1-3 1-4 neighbors ...
  special bond factors lj:    0        0        0       
  special bond factors coul:  0        0        0       
     3 = max # of 1-2 neighbors
     6 = max # of 1-3 neighbors
    18 = max # of 1-4 neighbors
    13 = max # of special neighbors
  special bonds CPU = 0.001 seconds
  read_data CPU = 0.006 seconds


group firstAtoms type 1
1 atoms in group firstAtoms
group lastAtoms type 42
1 atoms in group lastAtoms
displace_atoms firstAtoms move 0  ${dispDist} 0  units box
displace_atoms firstAtoms move 0  28.0335225 0  units box
Displacing atoms ...
displace_atoms lastAtoms move  0 -${dispDist} 0  units box
displace_atoms lastAtoms move  0 -28.0335225 0  units box
Displacing atoms ...

group endpoints union firstAtoms lastAtoms
2 atoms in group endpoints

compute bondID all property/local btype batom1 batom2
compute angleID all property/local atype aatom1 aatom2 aatom3

fix restraint all arclengthrestraint productionIdealized 0.5 ${totLength}
fix restraint all arclengthrestraint productionIdealized 0.5 1121.3409

fix stationary endpoints setforce 0.0 0.0 0.0

comm_modify cutoff 100

minimize 0.0 1.0e-9 100000 100000
----------------------------------------------------------
Using INTEL Package without Coprocessor.
Compiler: Intel Classic C++ 20.21.7 / Intel(R) C++ g++ 12.2 mode
SIMD compiler directives: Enabled
Precision: mixed
----------------------------------------------------------
Generated 0 of 861 mixed pair_coeff terms from geometric mixing rule
Neighbor list info ...
  update: every = 1 steps, delay = 0 steps, check = yes
  max neighbors/atom: 2000, page size: 100000
  master list distance cutoff = 0
  ghost atom cutoff = 100
  binsize = 10000, bins = 1 1 1
  1 neighbor lists, perpetual/occasional/extra = 1 0 0
  (1) pair lj/cut/intel, perpetual
      attributes: half, newton on, intel
      pair build: half/bin/newton/intel
      stencil: half/bin/3d/intel
      bin: intel
WARNING: No pairwise cutoff or binsize set. Atom sorting therefore disabled. (../atom.cpp:2438)
Per MPI rank memory allocation (min/avg/max) = 0.4364 | 0.7333 | 9.935 Mbytes
   Step          Temp          E_pair         E_mol          TotEng         Press     
         0   0              0              13455.129      13455.129     -0.0012393587 
      8127   0              0              66.522277      66.522277     -2.1322574e-05
Loop time of 0.260709 on 32 procs for 8127 steps with 42 atoms

99.8% CPU use with 32 MPI tasks x 1 OpenMP threads

Minimization stats:
  Stopping criterion = linesearch alpha is zero
  Energy initial, next-to-last, final = 
      13455.1291551962   66.5222772406414   66.5222772406414
  Force two-norm initial, final = 405.58844 0.12066744
  Force max component initial, final = 269.98109 0.025239658
  Final line search alpha, max atom move = 4.7683716e-07 1.2035207e-08
  Iterations, force evaluations = 8127 13275

MPI task timing breakdown:
Section |  min time  |  avg time  |  max time  |%varavg| %total
---------------------------------------------------------------
Pair    | 0.001115   | 0.0017083  | 0.013263   |   5.0 |  0.66
Bond    | 0.00099723 | 0.0020829  | 0.030839   |  11.3 |  0.80
Neigh   | 0.0092262  | 0.0101     | 0.010789   |   0.5 |  3.87
Comm    | 0.0095158  | 0.010399   | 0.013451   |   0.9 |  3.99
Output  | 0          | 0          | 0          |   0.0 |  0.00
Modify  | 0.057357   | 0.090837   | 0.092538   |   2.0 | 34.84
Other   |            | 0.1456     |            |       | 55.84

Nlocal:         1.3125 ave          42 max           0 min
Histogram: 31 0 0 0 0 0 0 0 0 1
Nghost:              0 ave           0 max           0 min
Histogram: 32 0 0 0 0 0 0 0 0 0
Neighs:              0 ave           0 max           0 min
Histogram: 32 0 0 0 0 0 0 0 0 0

Total # of neighbors = 0
Ave neighs/atom = 0
Ave special neighs/atom = 5.7142857
Neighbor list builds = 618
Dangerous builds = 0

unfix stationary


reset_timestep 0

run 0
WARNING: No fixes with time integration, atoms won't move (../verlet.cpp:60)
----------------------------------------------------------
Using INTEL Package without Coprocessor.
Compiler: Intel Classic C++ 20.21.7 / Intel(R) C++ g++ 12.2 mode
SIMD compiler directives: Enabled
Precision: mixed
----------------------------------------------------------
Generated 0 of 861 mixed pair_coeff terms from geometric mixing rule
Per MPI rank memory allocation (min/avg/max) = 0.4364 | 0.6981 | 8.81 Mbytes
   Step          Temp          E_pair         E_mol          TotEng         Press     
         0   0              0              66.522277      66.522277     -2.1322574e-05
Loop time of 2.83019e-06 on 32 procs for 0 steps with 42 atoms

117.0% CPU use with 32 MPI tasks x 1 OpenMP threads

MPI task timing breakdown:
Section |  min time  |  avg time  |  max time  |%varavg| %total
---------------------------------------------------------------
Pair    | 0          | 0          | 0          |   0.0 |  0.00
Bond    | 0          | 0          | 0          |   0.0 |  0.00
Neigh   | 0          | 0          | 0          |   0.0 |  0.00
Comm    | 0          | 0          | 0          |   0.0 |  0.00
Output  | 0          | 0          | 0          |   0.0 |  0.00
Modify  | 0          | 0          | 0          |   0.0 |  0.00
Other   |            | 2.83e-06   |            |       |100.00

Nlocal:         1.3125 ave          42 max           0 min
Histogram: 31 0 0 0 0 0 0 0 0 1
Nghost:              0 ave           0 max           0 min
Histogram: 32 0 0 0 0 0 0 0 0 0
Neighs:              0 ave           0 max           0 min
Histogram: 32 0 0 0 0 0 0 0 0 0

Total # of neighbors = 0
Ave neighs/atom = 0
Ave special neighs/atom = 5.7142857
Neighbor list builds = 0
Dangerous builds = 0

variable natoms equal count(all)

variable productionFile string "rest_prod_mds/restrained_production_${dispRatio}.txt"
rest_prod_mds/restrained_production_0.05.txt

print "# Minimized Production Model for dispRatio of ${dispRatio}" file ${productionFile}
print "# Minimized Production Model for dispRatio of ${dispRatio}" file rest_prod_mds/restrained_production_0.05.txt
# Minimized Production Model for dispRatio of 0.05

print """
$(count(all)) atoms
$(count(all)-1) bonds
$(count(all)-2) angles
0 dihedrals
0 impropers
""" append ${productionFile}
print """
$(count(all)) atoms
$(count(all)-1) bonds
$(count(all)-2) angles
0 dihedrals
0 impropers
""" append rest_prod_mds/restrained_production_0.05.txt

42 atoms
41 bonds
40 angles
0 dihedrals
0 impropers


print """
Coords
""" append ${productionFile}
print """
Coords
""" append rest_prod_mds/restrained_production_0.05.txt

Coords

write_dump all custom ${productionFile} id x y z modify append yes header no sort id
write_dump all custom rest_prod_mds/restrained_production_0.05.txt id x y z modify append yes header no sort id

print """
Types
""" append ${productionFile}
print """
Types
""" append rest_prod_mds/restrained_production_0.05.txt

Types

write_dump all custom ${productionFile} id type modify append yes header no sort id
write_dump all custom rest_prod_mds/restrained_production_0.05.txt id type modify append yes header no sort id

print """
Molecules
""" append ${productionFile}
print """
Molecules
""" append rest_prod_mds/restrained_production_0.05.txt

Molecules

write_dump all custom ${productionFile} id mol modify append yes header no sort id
write_dump all custom rest_prod_mds/restrained_production_0.05.txt id mol modify append yes header no sort id

print """
Bonds
""" append ${productionFile}
print """
Bonds
""" append rest_prod_mds/restrained_production_0.05.txt

Bonds

write_dump all local ${productionFile} index c_bondID[*] modify append yes header no
write_dump all local rest_prod_mds/restrained_production_0.05.txt index c_bondID[*] modify append yes header no
# write_dump all local ${productionFile} index c_bondID[0] c_bondID[1] c_bondID[2] modify append yes header no sort 2

print """
Angles
""" append ${productionFile}
print """
Angles
""" append rest_prod_mds/restrained_production_0.05.txt

Angles

# write_dump all local ${productionFile} index c_angleID[0] c_angleID[1] c_angleID[2] c_angleID[3] modify append yes header no sort 2
write_dump all local ${productionFile} index c_angleID[*] modify append yes header no
write_dump all local rest_prod_mds/restrained_production_0.05.txt index c_angleID[*] modify append yes header no


clear
OMP_NUM_THREADS environment is not set. Defaulting to 1 thread. (../comm.cpp:98)
  using 1 OpenMP thread(s) per MPI task
package intel 1

next dispRatio
Increment via next: value 23 on partition 0
jump HarmonicRestraintMinimize.lammps
Total wall time: 0:00:18
