print "The current dispRatio value is ${dispRatio}"
The current dispRatio value is 0.00

variable totLength equal 1121.3409
variable commDist equal "v_totLength*v_dispRatio"
variable dispDist equal "v_commDist/2"

variable seed equal 1
units real
boundary p p p

atom_style molecular

lattice sc 2500
Lattice spacing in x,y,z = 2500 2500 2500

region main block -1.5 2.5 -0.5 1.5 -1.5 2.5 units lattice
region insertionVolume block -1 2 0 1 -1 2 units lattice

create_box 168 main bond/types 167 angle/types 166 extra/bond/per/atom 2 extra/angle/per/atom 3 extra/special/per/atom 6
Created orthogonal box = (-3750 -1250 -3750) to (6250 3750 6250)
  4 by 2 by 4 MPI processor grid

molecule productionIdealized productionIdealized168.txt
Read molecule template productionIdealized:
# Molecule File for Linear Dimer of Idealized Chain of Alpha Spectrin
  1 molecules
  0 fragments
  168 atoms with max type 168
  167 bonds with max type 167
  166 angles with max type 166
  0 dihedrals with max type 0
  0 impropers with max type 0
bond_style harmonic
angle_style harmonic

# Uncomment below if using dispRatio 0.00 OR if NOT using INTEL package
#
 pair_style none

# Uncomment below if using INTEL package AND NOT using dispRatio 0.00
#
# pair_style lj/cut 0
# pair_coeff * * 0 0

create_atoms 0 single 0 0 0 mol productionIdealized ${seed} rotate 0 0 0 1
create_atoms 0 single 0 0 0 mol productionIdealized 1 rotate 0 0 0 1
Created 168 atoms
  using lattice units in orthogonal box = (-3750 -1250 -3750) to (6250 3750 6250)
  create_atoms CPU = 0.004 seconds

read_data IdealizedCoeffs168.data add merge
Reading data file ...
  orthogonal box = (-3750 -1250 -3750) to (6250 3750 6250)
  4 by 2 by 4 MPI processor grid
Finding 1-2 1-3 1-4 neighbors ...
  special bond factors lj:    0        0        0       
  special bond factors coul:  0        0        0       
     3 = max # of 1-2 neighbors
     6 = max # of 1-3 neighbors
    18 = max # of 1-4 neighbors
    13 = max # of special neighbors
  special bonds CPU = 0.002 seconds
  read_data CPU = 0.008 seconds


group firstAtoms type 1
1 atoms in group firstAtoms
group lastAtoms type 168
1 atoms in group lastAtoms
displace_atoms firstAtoms move 0  ${dispDist} 0  units box
displace_atoms firstAtoms move 0  0 0  units box
Displacing atoms ...
displace_atoms lastAtoms move  0 -${dispDist} 0  units box
displace_atoms lastAtoms move  0 -0 0  units box
Displacing atoms ...

group endpoints union firstAtoms lastAtoms
2 atoms in group endpoints

compute bondID all property/local btype batom1 batom2
compute angleID all property/local atype aatom1 aatom2 aatom3

fix restraint all arclengthrestraint productionIdealized 0.5 ${totLength}
fix restraint all arclengthrestraint productionIdealized 0.5 1121.3409

fix stationary endpoints setforce 0.0 0.0 0.0

comm_modify cutoff 100

minimize 0.0 1.0e-9 100000 100000

CITE-CITE-CITE-CITE-CITE-CITE-CITE-CITE-CITE-CITE-CITE-CITE-CITE

Your simulation uses code contributions which should be cited:

- Type Label Framework: https://doi.org/10.1021/acs.jpcb.3c08419

@Article{Gissinger24,
 author = {Jacob R. Gissinger, Ilia Nikiforov, Yaser Afshar, Brendon Waters, Moon-ki Choi, Daniel S. Karls, Alexander Stukowski, Wonpil Im, Hendrik Heinz, Axel Kohlmeyer, and Ellad B. Tadmor},
 title = {Type Label Framework for Bonded Force Fields in LAMMPS},
 journal = {J. Phys. Chem. B},
 year =    2024,
 volume =  128,
 number =  13,
 pages =   {3282–-3297}
}

CITE-CITE-CITE-CITE-CITE-CITE-CITE-CITE-CITE-CITE-CITE-CITE-CITE

WARNING: No pairwise cutoff or binsize set. Atom sorting therefore disabled. (../atom.cpp:2438)
Per MPI rank memory allocation (min/avg/max) = 0.04831 | 0.3263 | 8.943 Mbytes
   Step          Temp          E_pair         E_mol          TotEng         Press     
         0   0              0              22.049324      22.049324      1.7822997e-08
        26   0              0              22.049137      22.049137      1.7856135e-08
Loop time of 0.00576064 on 32 procs for 26 steps with 168 atoms

85.6% CPU use with 32 MPI tasks x 1 OpenMP threads

Minimization stats:
  Stopping criterion = linesearch alpha is zero
  Energy initial, next-to-last, final = 
      22.0493235903127   22.0491373110573   22.0491373110573
  Force two-norm initial, final = 0.1394478 0.002694704
  Force max component initial, final = 0.027120429 0.00046705358
  Final line search alpha, max atom move = 0.0009765625 4.5610701e-07
  Iterations, force evaluations = 26 71

MPI task timing breakdown:
Section |  min time  |  avg time  |  max time  |%varavg| %total
---------------------------------------------------------------
Pair    | 0          | 0          | 0          |   0.0 |  0.00
Bond    | 6.277e-06  | 6.6874e-05 | 0.0018512  |   0.0 |  1.16
Neigh   | 0          | 0          | 0          |   0.0 |  0.00
Comm    | 2.1167e-05 | 0.00011474 | 0.00025263 |   0.0 |  1.99
Output  | 0          | 0          | 0          |   0.0 |  0.00
Modify  | 0.0024406  | 0.003908   | 0.0040493  |   0.4 | 67.84
Other   |            | 0.001671   |            |       | 29.01

Nlocal:           5.25 ave         168 max           0 min
Histogram: 31 0 0 0 0 0 0 0 0 1
Nghost:              0 ave           0 max           0 min
Histogram: 32 0 0 0 0 0 0 0 0 0
Neighs:              0 ave           0 max           0 min
Histogram: 32 0 0 0 0 0 0 0 0 0

Total # of neighbors = 0
Ave neighs/atom = 0
Ave special neighs/atom = 5.9285714
Neighbor list builds = 0
Dangerous builds = 0

unfix stationary


reset_timestep 0

run 0
WARNING: No fixes with time integration, atoms won't move (../verlet.cpp:60)
Per MPI rank memory allocation (min/avg/max) = 0.04824 | 0.2911 | 7.818 Mbytes
   Step          Temp          E_pair         E_mol          TotEng         Press     
         0   0              0              22.049137      22.049137      1.7856135e-08
Loop time of 3.18141e-06 on 32 procs for 0 steps with 168 atoms

34.4% CPU use with 32 MPI tasks x 1 OpenMP threads

MPI task timing breakdown:
Section |  min time  |  avg time  |  max time  |%varavg| %total
---------------------------------------------------------------
Pair    | 0          | 0          | 0          |   0.0 |  0.00
Bond    | 0          | 0          | 0          |   0.0 |  0.00
Neigh   | 0          | 0          | 0          |   0.0 |  0.00
Comm    | 0          | 0          | 0          |   0.0 |  0.00
Output  | 0          | 0          | 0          |   0.0 |  0.00
Modify  | 0          | 0          | 0          |   0.0 |  0.00
Other   |            | 3.181e-06  |            |       |100.00

Nlocal:           5.25 ave         168 max           0 min
Histogram: 31 0 0 0 0 0 0 0 0 1
Nghost:              0 ave           0 max           0 min
Histogram: 32 0 0 0 0 0 0 0 0 0
Neighs:              0 ave           0 max           0 min
Histogram: 32 0 0 0 0 0 0 0 0 0

Total # of neighbors = 0
Ave neighs/atom = 0
Ave special neighs/atom = 5.9285714
Neighbor list builds = 0
Dangerous builds = 0

variable natoms equal count(all)

variable productionFile string "rest_prod_mds/restrained_production_168_${dispRatio}.txt"
rest_prod_mds/restrained_production_168_0.00.txt

print "# Minimized Production Model for dispRatio of ${dispRatio}" file ${productionFile}
print "# Minimized Production Model for dispRatio of ${dispRatio}" file rest_prod_mds/restrained_production_168_0.00.txt
# Minimized Production Model for dispRatio of 0.00

print """
$(count(all)) atoms
$(count(all)-1) bonds
$(count(all)-2) angles
0 dihedrals
0 impropers
""" append ${productionFile}
print """
$(count(all)) atoms
$(count(all)-1) bonds
$(count(all)-2) angles
0 dihedrals
0 impropers
""" append rest_prod_mds/restrained_production_168_0.00.txt

168 atoms
167 bonds
166 angles
0 dihedrals
0 impropers


print """
Coords
""" append ${productionFile}
print """
Coords
""" append rest_prod_mds/restrained_production_168_0.00.txt

Coords

write_dump all custom ${productionFile} id x y z modify append yes header no sort id
write_dump all custom rest_prod_mds/restrained_production_168_0.00.txt id x y z modify append yes header no sort id

print """
Types
""" append ${productionFile}
print """
Types
""" append rest_prod_mds/restrained_production_168_0.00.txt

Types

write_dump all custom ${productionFile} id type modify append yes header no sort id
write_dump all custom rest_prod_mds/restrained_production_168_0.00.txt id type modify append yes header no sort id

print """
Molecules
""" append ${productionFile}
print """
Molecules
""" append rest_prod_mds/restrained_production_168_0.00.txt

Molecules

write_dump all custom ${productionFile} id mol modify append yes header no sort id
write_dump all custom rest_prod_mds/restrained_production_168_0.00.txt id mol modify append yes header no sort id

print """
Bonds
""" append ${productionFile}
print """
Bonds
""" append rest_prod_mds/restrained_production_168_0.00.txt

Bonds

write_dump all local ${productionFile} index c_bondID[*] modify append yes header no
write_dump all local rest_prod_mds/restrained_production_168_0.00.txt index c_bondID[*] modify append yes header no
# write_dump all local ${productionFile} index c_bondID[0] c_bondID[1] c_bondID[2] modify append yes header no sort 2

print """
Angles
""" append ${productionFile}
print """
Angles
""" append rest_prod_mds/restrained_production_168_0.00.txt

Angles

# write_dump all local ${productionFile} index c_angleID[0] c_angleID[1] c_angleID[2] c_angleID[3] modify append yes header no sort 2
write_dump all local ${productionFile} index c_angleID[*] modify append yes header no
write_dump all local rest_prod_mds/restrained_production_168_0.00.txt index c_angleID[*] modify append yes header no


clear
OMP_NUM_THREADS environment is not set. Defaulting to 1 thread. (../comm.cpp:98)
  using 1 OpenMP thread(s) per MPI task

next dispRatio
Increment via next: value 2 on partition 0
jump HarmonicRestraint168Minimize.lammps
Total wall time: 0:00:00
