# Run 24 multi-replica simulation with 1 proc per replicate
variable dispRatio world 0.01 0.02 0.03 0.04 0.05 0.10 0.15 0.20 0.25 0.30 0.40 0.50 0.60 0.65 0.70 0.75 0.80 0.85 0.90 0.95 0.96 0.97 0.98 0.99

log Out_Force_Extension/logs/log_WLC_11_Force_Extension_dispRatio_${dispRatio}.lammps

variable totLength equal 10
variable dispDist equal "v_totLength * v_dispRatio / 2"

variable seed equal 1
units si
boundary p p p

atom_style molecular

region main block -500 500 -500 500 -500 500

create_box 11 main bond/types 10 angle/types 9 extra/bond/per/atom 2 extra/angle/per/atom 3 extra/special/per/atom 6

molecule WLC_11 Structures/Production/relaxed_WLC_11.txt
bond_style harmonic
angle_style harmonic
dihedral_style none

create_atoms 0 single 0 0 0 mol WLC_11 ${seed} rotate 0 0 0 1

read_data Structures/Coeffs/coeffs_WLC_11.data add merge
bond_coeff * 0 1

group internals type 2:10
group endpointAlpha type 1
group endpointOmega type 11

displace_atoms endpointAlpha move 0 ${dispDist} 0 units box
displace_atoms endpointOmega move 0 -${dispDist} 0 units box

variable k_restrain equal 100

compute internalsTemp internals temp

fix restraint all arclengthrestraint raw_WLC_11_Atoms ${k_restrain} ${totLength}
fix_modify restraint energy yes

comm_modify cutoff 100

thermo_style custom step pe ke fnorm epair epair ebond eangle edihed etotal

fix stationary endpoints setforce 0 0 0
min_modify dmax 10 norm max line backtrack # backtrack is necessary because minimizing points of restraint energy are degenerate
minimize 0 0 100000 100000
unfix stationary

thermo 1000000
thermo_style custom step internalsTemp

velocity internals create 310.0 ${seed} dist gaussian
timestep 1e-3
fix integrate internals nvt temp 310.0 310.0 $(25.0*dt)

compute endForce endpointOmega reduce ave fy

neighbor 100.0 bin
run 0
velocity internals scale 310.0

variable sampFreq equal 10000 # Sample force on endpoints every this-many timesteps.
variable numSamps equal 10000 # Number of force samples to take.
variable numSteps equal "v_sampFreq * v_numSamps"

fix printForces all print ${sampFreq} "c_endForce" file Out_Force_Extension/data/data_WLC_11_dispRatio_${dispRatio}.txt

run numSteps