print "The current dispRatio value is: ${dispRatio}"
The current dispRatio value is: 0.00

variable totLength equal 1121.3409 # Sum of all bond equilibrium lengths
variable dispDist equal "v_totLength*v_dispRatio/2"
variable commDist equal "v_dispDist*2"
# Displacement distance is divided by two because I want to displace both the bow and stern atoms of each chain.

variable seed equal 1
units real
boundary p p p

atom_style molecular

lattice sc 24000
Lattice spacing in x,y,z = 24000 24000 24000

region main block -1.5 2.5 -0.5 1.5 -1.5 2.5 units lattice
region insertionVolume block -1 2 0 1 -1 2 units lattice

# region main block -25000 25000 -25000 25000 -25000 25000
create_box 168 main bond/types 167 angle/types 166 extra/bond/per/atom 2 extra/angle/per/atom 3 extra/special/per/atom 6
Created orthogonal box = (-36000 -12000 -36000) to (60000 36000 60000)
  4 by 2 by 4 MPI processor grid
# region insertionVolume block -15000 15000 -15000 15000 -15000 15000

molecule productionIdealized168 productionIdealized168.txt
Read molecule template productionIdealized168:
# Molecule File for Linear Dimer of Idealized Chain of Alpha Spectrin
  1 molecules
  0 fragments
  168 atoms with max type 168
  167 bonds with max type 167
  166 angles with max type 166
  0 dihedrals with max type 0
  0 impropers with max type 0
bond_style harmonic
angle_style harmonic
# Uncomment below if using dispRatio 0.00 or if NOT using INTEL package
#
 pair_style none

# Uncomment below if using INTEL package AND NOT using dispRatio 0.00
#
# pair_style lj/cut 0
# pair_coeff * * 0 0


# pair_style zero 54.0
# pair_coeff * *
# pair_style dpd 1.0 20.0 23454
#  pair_coeff * * 0.0 0.0

# create_atoms 0 random 20 ${seed} insertionVolume mol productionIdealized ${seed} rotate 0 0 0 1
create_atoms 0 region insertionVolume mol productionIdealized168 ${seed} rotate 0 0 0 1
create_atoms 0 region insertionVolume mol productionIdealized168 1 rotate 0 0 0 1
Created 5376 atoms
  using lattice units in orthogonal box = (-36000 -12000 -36000) to (60000 36000 60000)
  create_atoms CPU = 0.008 seconds

# Load in Idealized Chain Parameters:
read_data IdealizedCoeffs168.data add merge
Reading data file ...
  orthogonal box = (-36000 -12000 -36000) to (60000 36000 60000)
  4 by 2 by 4 MPI processor grid
Finding 1-2 1-3 1-4 neighbors ...
  special bond factors lj:    0        0        0       
  special bond factors coul:  0        0        0       
     3 = max # of 1-2 neighbors
     6 = max # of 1-3 neighbors
    18 = max # of 1-4 neighbors
    13 = max # of special neighbors
  special bonds CPU = 0.006 seconds
  read_data CPU = 0.032 seconds

# Verify that parameters were assigned as intended:
# write_dump all custom debug/massCheck.${dispRatio}.dump mol id type mass
# write_coeff debug/coeffCheck.${dispRatio}.data

# write_dump all image images/beforeDisplacement.${dispRatio}.png type type zoom 4 adiam 15.0 bond atom 5.0 size 1280 1280


group firstAtoms type 1
32 atoms in group firstAtoms
group lastAtoms type 168
32 atoms in group lastAtoms
displace_atoms firstAtoms move 0  ${dispDist} 0  units box
displace_atoms firstAtoms move 0  0 0  units box
Displacing atoms ...
displace_atoms lastAtoms move  0 -${dispDist} 0  units box
displace_atoms lastAtoms move  0 -0 0  units box
Displacing atoms ...

group internals type 2:167
5312 atoms in group internals
group endpoints subtract all internals
64 atoms in group endpoints
# Change communication cutoff distance
# comm_modify mode single cutoff ${commDist} vel yes

# write_dump all image images/min.${dispRatio}.before.png type type zoom 4 adiam 15.0 bond atom 5.0 size 1280 1280
# This is keep the endpoints stationary during minimization
fix stationary endpoints setforce 0 0 0

# Minimize the initial structure for initializing velocities
minimize 0.0 1.0e-9 1000000 1000000

CITE-CITE-CITE-CITE-CITE-CITE-CITE-CITE-CITE-CITE-CITE-CITE-CITE

Your simulation uses code contributions which should be cited:

- Type Label Framework: https://doi.org/10.1021/acs.jpcb.3c08419

@Article{Gissinger24,
 author = {Jacob R. Gissinger, Ilia Nikiforov, Yaser Afshar, Brendon Waters, Moon-ki Choi, Daniel S. Karls, Alexander Stukowski, Wonpil Im, Hendrik Heinz, Axel Kohlmeyer, and Ellad B. Tadmor},
 title = {Type Label Framework for Bonded Force Fields in LAMMPS},
 journal = {J. Phys. Chem. B},
 year =    2024,
 volume =  128,
 number =  13,
 pages =   {3282–-3297}
}

CITE-CITE-CITE-CITE-CITE-CITE-CITE-CITE-CITE-CITE-CITE-CITE-CITE

WARNING: No pairwise cutoff or binsize set. Atom sorting therefore disabled. (../atom.cpp:2438)
Per MPI rank memory allocation (min/avg/max) = 8.016 | 8.016 | 8.016 Mbytes
   Step          Temp          E_pair         E_mol          TotEng         Press     
         0   0              0              1394.0434      1394.0434      6.4463965e-10
       238   0              0              1393.9237      1393.9237      5.2285669e-10
Loop time of 0.0256013 on 32 procs for 238 steps with 5376 atoms

97.7% CPU use with 32 MPI tasks x 1 OpenMP threads

Minimization stats:
  Stopping criterion = linesearch alpha is zero
  Energy initial, next-to-last, final = 
      1394.04342148321   1393.92374106517   1393.92374106517
  Force two-norm initial, final = 1.4879953 0.021365548
  Force max component initial, final = 0.0498352 0.0005461959
  Final line search alpha, max atom move = 1.5258789e-05 8.334288e-09
  Iterations, force evaluations = 238 507

MPI task timing breakdown:
Section |  min time  |  avg time  |  max time  |%varavg| %total
---------------------------------------------------------------
Pair    | 0          | 0          | 0          |   0.0 |  0.00
Bond    | 0.0094033  | 0.012122   | 0.016101   |   2.4 | 47.35
Neigh   | 0          | 0          | 0          |   0.0 |  0.00
Comm    | 0.00012716 | 0.00022841 | 0.00032817 |   0.0 |  0.89
Output  | 0          | 0          | 0          |   0.0 |  0.00
Modify  | 0.00013033 | 0.00017379 | 0.00025029 |   0.0 |  0.68
Other   |            | 0.01308    |            |       | 51.08

Nlocal:            168 ave         168 max         168 min
Histogram: 32 0 0 0 0 0 0 0 0 0
Nghost:              0 ave           0 max           0 min
Histogram: 32 0 0 0 0 0 0 0 0 0
Neighs:              0 ave           0 max           0 min
Histogram: 32 0 0 0 0 0 0 0 0 0

Total # of neighbors = 0
Ave neighs/atom = 0
Ave special neighs/atom = 5.9285714
Neighbor list builds = 0
Dangerous builds = 0
# Remove the stationary fix now the minimization is done
unfix stationary

# Change communication cutoff dist back to default
# comm_modify mode single cutoff 0.0

# write_dump all image images/min.${dispRatio}.post.png type type zoom 4 adiam 15.0 bond atom 5.0 size 1280 1280
# write_dump endpoints custom out/afterMinCoords.${dispRatio}.dump mol id type x y z

reset_timestep 0

velocity internals create 310.0 ${seed} dist gaussian
velocity internals create 310.0 1 dist gaussian

timestep 50
fix integrate internals nvt temp 310.0 310.0 $(25.0*dt)
fix integrate internals nvt temp 310.0 310.0 1250

# fix debug internals nve

compute internalsTemp internals temp
thermo 2000000
# thermo_style custom step temp
thermo_style custom step c_internalsTemp

compute molChunks all chunk/atom molecule

group bowAtoms type 1
32 atoms in group bowAtoms
group sternAtoms type 168
32 atoms in group sternAtoms

# compute bowComp bowAtoms property/atom fy
compute sternComp sternAtoms property/atom fy

compute endForce sternAtoms reduce ave fy

run 0
Per MPI rank memory allocation (min/avg/max) = 7.016 | 7.016 | 7.016 Mbytes
   Step     c_internalsTemp
         0   310          
Loop time of 3.65741e-06 on 32 procs for 0 steps with 5376 atoms

99.1% CPU use with 32 MPI tasks x 1 OpenMP threads

MPI task timing breakdown:
Section |  min time  |  avg time  |  max time  |%varavg| %total
---------------------------------------------------------------
Pair    | 0          | 0          | 0          |   0.0 |  0.00
Bond    | 0          | 0          | 0          |   0.0 |  0.00
Neigh   | 0          | 0          | 0          |   0.0 |  0.00
Comm    | 0          | 0          | 0          |   0.0 |  0.00
Output  | 0          | 0          | 0          |   0.0 |  0.00
Modify  | 0          | 0          | 0          |   0.0 |  0.00
Other   |            | 3.657e-06  |            |       |100.00

Nlocal:            168 ave         168 max         168 min
Histogram: 32 0 0 0 0 0 0 0 0 0
Nghost:              0 ave           0 max           0 min
Histogram: 32 0 0 0 0 0 0 0 0 0
Neighs:              0 ave           0 max           0 min
Histogram: 32 0 0 0 0 0 0 0 0 0

Total # of neighbors = 0
Ave neighs/atom = 0
Ave special neighs/atom = 5.9285714
Neighbor list builds = 0
Dangerous builds = 0
velocity internals scale 310.0

fix printCenters all ave/time 100 200000 20000000 c_endForce file out168/timeAvg_sternForces.${dispRatio}.txt
fix printCenters all ave/time 100 200000 20000000 c_endForce file out168/timeAvg_sternForces.0.00.txt

neighbor 1.0 bin
# comm_modify cutoff 100
neigh_modify every 2000000 delay 2000000 check yes exclude molecule/inter all

run 20000000
Per MPI rank memory allocation (min/avg/max) = 7.016 | 7.016 | 7.016 Mbytes
   Step     c_internalsTemp
         0   310          
   2000000   307.12479    
   4000000   308.65767    
   6000000   317.23993    
   8000000   311.85418    
  10000000   315.23634    
  12000000   310.09869    
  14000000   308.926      
  16000000   310.00707    
  18000000   311.09491    
  20000000   314.74999    
Loop time of 348.6 on 32 procs for 20000000 steps with 5376 atoms

Performance: 247848.588 ns/day, 0.000 hours/ns, 57372.358 timesteps/s, 308.434 Matom-step/s
99.8% CPU use with 32 MPI tasks x 1 OpenMP threads

MPI task timing breakdown:
Section |  min time  |  avg time  |  max time  |%varavg| %total
---------------------------------------------------------------
Pair    | 0          | 0          | 0          |   0.0 |  0.00
Bond    | 245.39     | 246        | 247.2      |   3.2 | 70.57
Neigh   | 0.00024668 | 0.00030849 | 0.00036708 |   0.0 |  0.00
Comm    | 3.1354     | 3.2708     | 3.6203     |   5.4 |  0.94
Output  | 0.00019471 | 0.00023402 | 0.0010435  |   0.0 |  0.00
Modify  | 93.405     | 94.996     | 95.642     |   5.8 | 27.25
Other   |            | 4.333      |            |       |  1.24

Nlocal:            168 ave         168 max         168 min
Histogram: 32 0 0 0 0 0 0 0 0 0
Nghost:              0 ave           0 max           0 min
Histogram: 32 0 0 0 0 0 0 0 0 0
Neighs:              0 ave           0 max           0 min
Histogram: 32 0 0 0 0 0 0 0 0 0

Total # of neighbors = 0
Ave neighs/atom = 0
Ave special neighs/atom = 5.9285714
Neighbor list builds = 10
Dangerous builds = 10

clear
OMP_NUM_THREADS environment is not set. Defaulting to 1 thread. (../comm.cpp:98)
  using 1 OpenMP thread(s) per MPI task

next dispRatio
Increment via next: value 2 on partition 0
jump Idealized168Stretch.lammps
Total wall time: 0:05:49
